  Job Started  at 21:49.26 30th July       2020

  Number of CPUs =     1

  Total number of configurations input =      1

*  Input for Configuration =   1                                               *

  Formula = C64

  Number of irreducible atoms/shells =      64

  Total number atoms/shells =      64

  Dimensionality = 3               :  Bulk

  Cartesian lattice vectors (Angstroms) :

        7.593100    0.000000    0.000000
        0.000000    7.593100    0.000000
        0.000000    0.000000    7.593100

  Cell parameters (Angstroms/Degrees):

  a =       7.5931    alpha =  90.0000
  b =       7.5931    beta  =  90.0000
  c =       7.5931    gamma =  90.0000

  Initial cell volume =         437.781453 Angs**3

  Shrinking factors =      8     8     8

  Temperature of configuration =   0.00     K

  Pressure of configuration =         0.000 GPa

  Fractional coordinates of asymmetric unit :

   No.  Atomic       x           y          z         Charge      Occupancy
        Label      (Frac)      (Frac)     (Frac)        (e)         (Frac)
      1 C     c    0.476040    0.519880    0.065020     0.00000    1.000000
      2 C     c    0.411090    0.739130    0.305510     0.00000    1.000000
      3 C     c    0.290580    0.259720    0.911110     0.00000    1.000000
      4 C     c    0.105170    0.009130    0.614130     0.00000    1.000000
      5 C     c    0.961210    0.853060    0.880860     0.00000    1.000000
      6 C     c    0.796560    0.475320    0.580190     0.00000    1.000000
      7 C     c    0.614850    0.415770    0.678910     0.00000    1.000000
      8 C     c    0.790520    0.713470    0.331150     0.00000    1.000000
      9 C     c    0.884070    0.246560    0.325780     0.00000    1.000000
     10 C     c    0.686090    0.160460    0.139750     0.00000    1.000000
     11 C     c    0.872090    0.039180    0.358240     0.00000    1.000000
     12 C     c    0.951440    0.932080    0.517750     0.00000    1.000000
     13 C     c    0.515810    0.057940    0.148300     0.00000    1.000000
     14 C     c    0.552710    0.979840    0.494840     0.00000    1.000000
     15 C     c    0.469570    0.328760    0.001070     0.00000    1.000000
     16 C     c    0.950610    0.350420    0.486310     0.00000    1.000000
     17 C     c    0.160540    0.418020    0.829760     0.00000    1.000000
     18 C     c    0.833890    0.731170    0.814570     0.00000    1.000000
     19 C     c    0.915720    0.948090    0.035330     0.00000    1.000000
     20 C     c    0.145150    0.914300    0.792900     0.00000    1.000000
     21 C     c    0.873300    0.645530    0.655420     0.00000    1.000000
     22 C     c    0.891380    0.123190    0.725810     0.00000    1.000000
     23 C     c    0.501770    0.601400    0.412890     0.00000    1.000000
     24 C     c    0.653260    0.703130    0.881890     0.00000    1.000000
     25 C     c    0.641300    0.587240    0.027650     0.00000    1.000000
     26 C     c    0.791350    0.972820    0.719230     0.00000    1.000000
     27 C     c    0.470590    0.465440    0.576360     0.00000    1.000000
     28 C     c    0.359610    0.641510    0.137990     0.00000    1.000000
     29 C     c    0.592450    0.951460    0.689430     0.00000    1.000000
     30 C     c    0.715750    0.339670    0.233980     0.00000    1.000000
     31 C     c    0.007790    0.192810    0.155260     0.00000    1.000000
     32 C     c    0.970840    0.395170    0.892610     0.00000    1.000000
     33 C     c    0.506640    0.785480    0.781750     0.00000    1.000000
     34 C     c    0.847670    0.135630    0.031550     0.00000    1.000000
     35 C     c    0.354850    0.174710    0.710580     0.00000    1.000000
     36 C     c    0.114940    0.477260    0.445250     0.00000    1.000000
     37 C     c    0.182890    0.160870    0.081400     0.00000    1.000000
     38 C     c    0.282170    0.398600    0.516330     0.00000    1.000000
     39 C     c    0.103810    0.672510    0.418880     0.00000    1.000000
     40 C     c    0.934260    0.498170    0.036850     0.00000    1.000000
     41 C     c    0.834280    0.245500    0.869130     0.00000    1.000000
     42 C     c    0.372350    0.212340    0.168090     0.00000    1.000000
     43 C     c    0.395760    0.116500    0.506280     0.00000    1.000000
     44 C     c    0.982300    0.712500    0.264730     0.00000    1.000000
     45 C     c    0.394730    0.276570    0.365780     0.00000    1.000000
     46 C     c    0.555650    0.398780    0.337940     0.00000    1.000000
     47 C     c    0.310670    0.762570    0.779360     0.00000    1.000000
     48 C     c    0.932350    0.900510    0.211710     0.00000    1.000000
     49 C     c    0.768410    0.485530    0.108470     0.00000    1.000000
     50 C     c    0.255480    0.804170    0.413060     0.00000    1.000000
     51 C     c    0.708130    0.550950    0.405570     0.00000    1.000000
     52 C     c    0.957060    0.748020    0.531720     0.00000    1.000000
     53 C     c    0.232340    0.604470    0.860020     0.00000    1.000000
     54 C     c    0.042610    0.618420    0.110550     0.00000    1.000000
     55 C     c    0.626280    0.286080    0.844660     0.00000    1.000000
     56 C     c    0.439780    0.009990    0.967640     0.00000    1.000000
     57 C     c    0.520990    0.912250    0.285010     0.00000    1.000000
     58 C     c    0.206050    0.646490    0.042310     0.00000    1.000000
     59 C     c    0.036510    0.209830    0.611530     0.00000    1.000000
     60 C     c    0.257910    0.962370    0.491510     0.00000    1.000000
     61 C     c    0.716210    0.894840    0.367440     0.00000    1.000000
     62 C     c    0.243650    0.004280    0.953200     0.00000    1.000000
     63 C     c    0.518010    0.099250    0.807560     0.00000    1.000000
     64 C     c    0.200730    0.302710    0.668820     0.00000    1.000000

  Brillouin zone sampling points :

  Point number          x          y          z            Weight
        1           0.062500   0.062500   0.062500     0.00390625
        2           0.062500   0.062500   0.187500     0.00390625
        3           0.062500   0.062500   0.312500     0.00390625
        4           0.062500   0.062500   0.437500     0.00390625
        5           0.062500   0.062500   0.562500     0.00390625
        6           0.062500   0.062500   0.687500     0.00390625
        7           0.062500   0.062500   0.812500     0.00390625
        8           0.062500   0.062500   0.937500     0.00390625
        9           0.062500   0.187500   0.062500     0.00390625
       10           0.062500   0.187500   0.187500     0.00390625
       11           0.062500   0.187500   0.312500     0.00390625
       12           0.062500   0.187500   0.437500     0.00390625
       13           0.062500   0.187500   0.562500     0.00390625
       14           0.062500   0.187500   0.687500     0.00390625
       15           0.062500   0.187500   0.812500     0.00390625
       16           0.062500   0.187500   0.937500     0.00390625
       17           0.062500   0.312500   0.062500     0.00390625
       18           0.062500   0.312500   0.187500     0.00390625
       19           0.062500   0.312500   0.312500     0.00390625
       20           0.062500   0.312500   0.437500     0.00390625
       21           0.062500   0.312500   0.562500     0.00390625
       22           0.062500   0.312500   0.687500     0.00390625
       23           0.062500   0.312500   0.812500     0.00390625
       24           0.062500   0.312500   0.937500     0.00390625
       25           0.062500   0.437500   0.062500     0.00390625
       26           0.062500   0.437500   0.187500     0.00390625
       27           0.062500   0.437500   0.312500     0.00390625
       28           0.062500   0.437500   0.437500     0.00390625
       29           0.062500   0.437500   0.562500     0.00390625
       30           0.062500   0.437500   0.687500     0.00390625
       31           0.062500   0.437500   0.812500     0.00390625
       32           0.062500   0.437500   0.937500     0.00390625
       33           0.062500   0.562500   0.062500     0.00390625
       34           0.062500   0.562500   0.187500     0.00390625
       35           0.062500   0.562500   0.312500     0.00390625
       36           0.062500   0.562500   0.437500     0.00390625
       37           0.062500   0.562500   0.562500     0.00390625
       38           0.062500   0.562500   0.687500     0.00390625
       39           0.062500   0.562500   0.812500     0.00390625
       40           0.062500   0.562500   0.937500     0.00390625
       41           0.062500   0.687500   0.062500     0.00390625
       42           0.062500   0.687500   0.187500     0.00390625
       43           0.062500   0.687500   0.312500     0.00390625
       44           0.062500   0.687500   0.437500     0.00390625
       45           0.062500   0.687500   0.562500     0.00390625
       46           0.062500   0.687500   0.687500     0.00390625
       47           0.062500   0.687500   0.812500     0.00390625
       48           0.062500   0.687500   0.937500     0.00390625
       49           0.062500   0.812500   0.062500     0.00390625
       50           0.062500   0.812500   0.187500     0.00390625
       51           0.062500   0.812500   0.312500     0.00390625
       52           0.062500   0.812500   0.437500     0.00390625
       53           0.062500   0.812500   0.562500     0.00390625
       54           0.062500   0.812500   0.687500     0.00390625
       55           0.062500   0.812500   0.812500     0.00390625
       56           0.062500   0.812500   0.937500     0.00390625
       57           0.062500   0.937500   0.062500     0.00390625
       58           0.062500   0.937500   0.187500     0.00390625
       59           0.062500   0.937500   0.312500     0.00390625
       60           0.062500   0.937500   0.437500     0.00390625
[...]
      242           0.437500   0.812500   0.187500     0.00390625
      243           0.437500   0.812500   0.312500     0.00390625
      244           0.437500   0.812500   0.437500     0.00390625
      245           0.437500   0.812500   0.562500     0.00390625
      246           0.437500   0.812500   0.687500     0.00390625
      247           0.437500   0.812500   0.812500     0.00390625
      248           0.437500   0.812500   0.937500     0.00390625
      249           0.437500   0.937500   0.062500     0.00390625
      250           0.437500   0.937500   0.187500     0.00390625
      251           0.437500   0.937500   0.312500     0.00390625
      252           0.437500   0.937500   0.437500     0.00390625
      253           0.437500   0.937500   0.562500     0.00390625
      254           0.437500   0.937500   0.687500     0.00390625
      255           0.437500   0.937500   0.812500     0.00390625
      256           0.437500   0.937500   0.937500     0.00390625

*  General input information                                                   *

  Species output for all configurations :

  Species    Type    Atomic    Atomic    Charge       Radii (Angs)     Library
                     Number     Mass       (e)     Cova   Ionic  VDW   Symbol
    C        Core        6      12.01   0.000000   0.770  0.000  1.530

  Lattice summation method               =    Ewald          (3-D)
                                         =    Parry          (2-D)
                                         =    Saunders et al (1-D)
  Accuracy factor for lattice sums       =   12.000

  Analytic derivatives to be used

  Time limit = Infinity

  Maximum range for interatomic potentials =    100000.000000 Angstroms

  Brenner et al 2002 potential to be used with explicit splines for P

*  Output for configuration   1                                                *

  Components of energy :

  Interatomic potentials     =           0.00000000 eV
  Brenner potentials         =        -421.97997685 eV
  Monopole - monopole (real) =           0.00000000 eV
  Monopole - monopole (recip)=           0.00000000 eV
  Monopole - monopole (total)=           0.00000000 eV
  Total lattice energy       =        -421.97997685 eV
  Total lattice energy       =          -40714.6172 kJ/(mole unit cells)

  Elastic Constant Matrix: (Units=GPa)

  Indices      1         2         3         4         5         6
       1    555.2031  214.6510  185.2823   16.2805  -33.1309   27.5935
       2    214.6510  403.1498  185.5452    1.7720   13.7658   15.4193
       3    185.2823  185.5452  419.1374    8.4033  -44.3614  -32.3715
       4     16.2805    1.7720    8.4033  149.8225  -28.3211  -14.4240
       5    -33.1309   13.7658  -44.3614  -28.3211  138.4113   14.7542
       6     27.5935   15.4193  -32.3715  -14.4240   14.7542  140.2832

  Elastic Compliance Matrix: (Units=1/GPa)

  Indices      1         2         3         4         5         6
       1    0.002471 -0.001021 -0.000628 -0.000180  0.000518 -0.000592
       2   -0.001021  0.003679 -0.001314 -0.000088 -0.001006 -0.000410
       3   -0.000628 -0.001314  0.003423  0.000176  0.001010  0.000970
       4   -0.000180 -0.000088  0.000176  0.007011  0.001386  0.000661
       5    0.000518 -0.001006  0.001010  0.001386  0.008106 -0.000468
       6   -0.000592 -0.000410  0.000970  0.000661 -0.000468  0.007631

  Mechanical properties :

  Convention :                    Reuss         Voigt         Hill
  Bulk  Modulus (GPa)     =     274.07673     283.16080     278.61877
  Shear Modulus (GPa)     =     126.70469     138.50419     132.60444
  Velocity S-wave (km/s)  =       6.59228       6.89240       6.74401
  Velocity P-wave (km/s)  =      12.32676      12.66732      12.49820
  Compressibility (1/GPa) =    0.00364861
  Stress axis :                     x             y             z
  Youngs Moduli (GPa)     =     404.70665     271.80348     292.13565
  Poissons Ratio (x)      =                     0.27753       0.18332
  Poissons Ratio (y)      =       0.41323                     0.38377
  Poissons Ratio (z)      =       0.25396       0.35706

  Piezoelectric Strain Matrix: (Units=C/m**2)

  Indices      1         2         3         4         5         6
       x    -0.00000  -0.00000  -0.00000  -0.00000  -0.00000  -0.00000
       y    -0.00000  -0.00000  -0.00000  -0.00000  -0.00000  -0.00000
       z    -0.00000  -0.00000  -0.00000  -0.00000  -0.00000  -0.00000

  Piezoelectric Stress Matrix: (Units=10**-11 C/N)

  Indices      1         2         3         4         5         6
       x     0.00000   0.00000   0.00000   0.00000   0.00000   0.00000
       y     0.00000   0.00000   0.00000   0.00000   0.00000   0.00000
       z     0.00000   0.00000   0.00000   0.00000   0.00000   0.00000

  Static dielectric constant tensor :

              x         y         z
       x     1.00000   0.00000   0.00000
       y     0.00000   1.00000   0.00000
       z     0.00000   0.00000   1.00000

  Static refractive indices :

    1 =    1.00000      2 =    1.00000      3 =    1.00000

  Phonon Calculation :

  Number of k points for this configuration =      256

  K point      1 =   0.062500  0.062500  0.062500  Weight =    0.004

  Frequencies (cm-1) [NB: Negative implies an imaginary mode]:

[...]

  K point    256 =   0.437500  0.937500  0.937500  Weight =    0.004

  Frequencies (cm-1) [NB: Negative implies an imaginary mode]:

  113.57  135.74  147.96  166.88  185.95  207.27  212.27  228.48  235.72
  256.48  265.25  275.61  282.57  295.12  298.58  307.27  311.07  322.76
  334.10  339.79  342.30  356.46  365.74  369.54  379.81  382.85  391.90
  396.37  403.57  412.54  420.63  428.15  437.12  442.22  452.43  455.33
  467.65  472.53  482.99  489.63  500.14  505.78  513.73  519.13  531.32
  540.20  549.04  550.72  555.72  564.90  571.29  576.55  585.24  594.52
  603.50  608.46  613.61  617.86  628.74  636.12  648.29  652.08  658.96
  665.02  674.64  682.40  685.56  696.09  707.99  714.34  726.28  735.34
  743.56  748.39  759.32  768.04  776.23  782.07  788.60  799.14  804.16
  810.09  822.89  829.24  840.03  845.23  854.48  858.63  866.84  870.32
  886.92  893.16  905.13  907.79  916.83  920.84  934.27  947.83  949.94
  958.72  969.74  977.60  984.09  992.61  997.80 1009.53 1013.99 1027.95
 1031.05 1033.14 1047.31 1054.86 1072.38 1081.98 1088.70 1099.95 1102.52
 1108.48 1114.35 1122.75 1130.85 1143.00 1156.28 1165.86 1169.97 1179.71
 1185.84 1194.73 1202.86 1212.44 1224.94 1236.93 1245.02 1254.74 1268.14
 1273.16 1283.78 1290.76 1305.79 1311.85 1318.01 1324.98 1337.24 1343.75
 1350.25 1355.94 1373.51 1382.30 1386.73 1398.37 1415.58 1431.11 1437.91
 1444.95 1455.64 1469.24 1475.33 1484.13 1502.94 1508.00 1525.30 1549.43
 1555.72 1569.20 1586.95 1592.11 1604.35 1606.05 1623.50 1681.60 1719.06
 1770.12 1781.79 1784.24 1829.26 1892.57 1900.80 1927.72 1939.02 1970.18
 1972.89 2072.44 2119.04 2154.46 2346.35 2508.81 2544.23 2580.91 2931.82
 2979.90 3185.70 3232.96

  Phonon properties (per mole of unit cells): Temperature =      0.000 K
  Zero point energy            =       12.103207 eV

  Time to end of properties =      99.4229 seconds

  Timing analysis for GULP :

  Task / Subroutine                                          Time (Seconds)
  Calculation of real space energy and derivatives                0.0936
  Calculation of Brenner energy and derivatives                  89.0294
  Calculation of phonons                                         98.9359
  Calculation of matrix inversion                                 0.0001
  Disk read/write operations to scratch files                     0.2816

  Job Finished at 21:51.05 30th July       2020