  Job Started  at 19:51.27 24th May        2021

  Number of CPUs =    20

  Host name      = p3

  Total number of configurations input =      1

*  Input for Configuration =   1                                               *

  Formula = C8

  Number of irreducible atoms/shells =       8

  Total number atoms/shells =       8

  Dimensionality = 3               :  Bulk

  Cartesian lattice vectors (Angstroms) :

        3.570000    0.000000    0.000000
        0.000000    3.570000    0.000000
        0.000000    0.000000    3.570000

  Cell parameters (Angstroms/Degrees):

  a =       3.5700    alpha =  90.0000
  b =       3.5700    beta  =  90.0000
  c =       3.5700    gamma =  90.0000

  Initial cell volume =          45.499293 Angs**3

  Shrinking factors =      6     6     6

  Temperature of configuration =  0.000     K

  Pressure of configuration =         0.000 GPa

  Fractional coordinates of asymmetric unit :

   No.  Atomic       x           y          z         Charge      Occupancy
        Label      (Frac)      (Frac)     (Frac)        (e)         (Frac)
      1 C     c    0.000000    0.000000    0.000000     0.00000    1.000000
      2 C     c    0.000000    0.500000    0.500000     0.00000    1.000000
      3 C     c    0.500000    0.500000    0.000000     0.00000    1.000000
      4 C     c    0.500000    0.000000    0.500000     0.00000    1.000000
      5 C     c    0.750000    0.250000    0.750000     0.00000    1.000000
      6 C     c    0.250000    0.250000    0.250000     0.00000    1.000000
      7 C     c    0.250000    0.750000    0.750000     0.00000    1.000000
      8 C     c    0.750000    0.750000    0.250000     0.00000    1.000000

  Brillouin zone sampling points :

  Point number          x          y          z            Weight
        1           0.500000   0.000000   0.500000     0.00403226
        2           0.473684   0.000000   0.500000     0.00403226
        3           0.447368   0.000000   0.500000     0.00403226
        4           0.421053   0.000000   0.500000     0.00403226
        5           0.394737   0.000000   0.500000     0.00403226
        6           0.368421   0.000000   0.500000     0.00403226
        7           0.342105   0.000000   0.500000     0.00403226
        8           0.315789   0.000000   0.500000     0.00403226
        9           0.289474   0.000000   0.500000     0.00403226
       10           0.263158   0.000000   0.500000     0.00403226
       11           0.236842   0.000000   0.500000     0.00403226
       12           0.210526   0.000000   0.500000     0.00403226
       13           0.184211   0.000000   0.500000     0.00403226
       14           0.157895   0.000000   0.500000     0.00403226
       15           0.131579   0.000000   0.500000     0.00403226
       16           0.105263   0.000000   0.500000     0.00403226
       17           0.078947   0.000000   0.500000     0.00403226
       18           0.052632   0.000000   0.500000     0.00403226
       19           0.026316   0.000000   0.500000     0.00403226
       20           0.000000   0.000000   0.500000     0.00403226
       21           0.000000   0.000000   0.500000     0.00403226
       22           0.000000   0.000000   0.473684     0.00403226
       23           0.000000   0.000000   0.447368     0.00403226
       24           0.000000   0.000000   0.421053     0.00403226
       25           0.000000   0.000000   0.394737     0.00403226
       26           0.000000   0.000000   0.368421     0.00403226
       27           0.000000   0.000000   0.342105     0.00403226
       28           0.000000   0.000000   0.315789     0.00403226
       29           0.000000   0.000000   0.289474     0.00403226
       30           0.000000   0.000000   0.263158     0.00403226
       31           0.000000   0.000000   0.236842     0.00403226
       32           0.000000   0.000000   0.210526     0.00403226
       33           0.000000   0.000000   0.184211     0.00403226
       34           0.000000   0.000000   0.157895     0.00403226
       35           0.000000   0.000000   0.131579     0.00403226
       36           0.000000   0.000000   0.105263     0.00403226
       37           0.000000   0.000000   0.078947     0.00403226
       38           0.000000   0.000000   0.052632     0.00403226
       39           0.000000   0.000000   0.026316     0.00403226
       40           0.000000   0.000000   0.000000     0.00403226
       41           0.000000   0.000000   0.000000     0.00403226
       42           0.026316   0.000000   0.000000     0.00403226
       43           0.052632   0.000000   0.000000     0.00403226
       44           0.078947   0.000000   0.000000     0.00403226
       45           0.105263   0.000000   0.000000     0.00403226
       46           0.131579   0.000000   0.000000     0.00403226
       47           0.157895   0.000000   0.000000     0.00403226
       48           0.184211   0.000000   0.000000     0.00403226
       49           0.210526   0.000000   0.000000     0.00403226
       50           0.236842   0.000000   0.000000     0.00403226
       51           0.263158   0.000000   0.000000     0.00403226
       52           0.289474   0.000000   0.000000     0.00403226
       53           0.315789   0.000000   0.000000     0.00403226
       54           0.342105   0.000000   0.000000     0.00403226
       55           0.368421   0.000000   0.000000     0.00403226
       56           0.394737   0.000000   0.000000     0.00403226
       57           0.421053   0.000000   0.000000     0.00403226
       58           0.447368   0.000000   0.000000     0.00403226
       59           0.473684   0.000000   0.000000     0.00403226
       60           0.500000   0.000000   0.000000     0.00403226
[...]
      234           0.416667   0.583333   0.583333     0.00403226
      235           0.416667   0.583333   0.750000     0.00403226
      236           0.416667   0.583333   0.916667     0.00403226
      237           0.416667   0.750000   0.083333     0.00403226
      238           0.416667   0.750000   0.250000     0.00403226
      239           0.416667   0.750000   0.416667     0.00403226
      240           0.416667   0.750000   0.583333     0.00403226
      241           0.416667   0.750000   0.750000     0.00403226
      242           0.416667   0.750000   0.916667     0.00403226
      243           0.416667   0.916667   0.083333     0.00403226
      244           0.416667   0.916667   0.250000     0.00403226
      245           0.416667   0.916667   0.416667     0.00403226
      246           0.416667   0.916667   0.583333     0.00403226
      247           0.416667   0.916667   0.750000     0.00403226
      248           0.416667   0.916667   0.916667     0.00403226

*  General input information                                                   *

  Species output for all configurations :

  Species    Type    Atomic    Atomic    Charge       Radii (Angs)     Library
                     Number     Mass       (e)     Cova   Ionic  VDW   Symbol
    C        Core        6      12.01   0.000000   0.770  0.000  1.530

  Lattice summation method               =    Ewald          (3-D)
                                         =    Parry          (2-D)
                                         =    Saunders et al (1-D)
  Accuracy factor for lattice sums       =   12.000

  Time limit = Infinity

  Maximum range for interatomic potentials =    100000.000000 Angstroms

  Brenner et al 2002 potential to be used with explicit splines for P

*  Output for configuration   1                                                *

  Components of energy :

  Interatomic potentials     =           0.00000000 eV
  Brenner potentials         =         -58.95711466 eV
  Monopole - monopole (real) =           0.00000000 eV
  Monopole - monopole (recip)=           0.00000000 eV
  Monopole - monopole (total)=           0.00000000 eV
  Total lattice energy       =         -58.95711466 eV
  Total lattice energy       =           -5688.4603 kJ/(mole unit cells)

  Elastic Constant Matrix: (Units=GPa)

  Indices      1         2         3         4         5         6
       1   1065.6112  121.6996  121.6996   -0.0000   -0.0000   -0.0000
       2    121.6996 1065.6112  121.6996   -0.0000   -0.0000   -0.0000
       3    121.6996  121.6996 1065.6112   -0.0000   -0.0000   -0.0000
       4     -0.0000   -0.0000   -0.0000  713.6015    0.0000    0.0000
       5     -0.0000   -0.0000   -0.0000    0.0000  713.6015    0.0000
       6     -0.0000   -0.0000   -0.0000    0.0000    0.0000  713.6015

  Elastic Constant Tensor Eigenvalues: (Units=GPa)

     1 =   713.6015     2 =   713.6015     3 =   713.6015
     4 =   943.9115     5 =   943.9115     6 =  1309.0104

  Elastic Compliance Matrix: (Units=1/GPa)

  Indices      1         2         3         4         5         6
       1    0.000961 -0.000098 -0.000098  0.000000  0.000000  0.000000
       2   -0.000098  0.000961 -0.000098  0.000000  0.000000  0.000000
       3   -0.000098 -0.000098  0.000961  0.000000  0.000000  0.000000
       4    0.000000  0.000000  0.000000  0.001401 -0.000000 -0.000000
       5    0.000000  0.000000  0.000000 -0.000000  0.001401 -0.000000
       6    0.000000  0.000000  0.000000 -0.000000 -0.000000  0.001401

  Mechanical properties :

  Convention :                    Reuss         Voigt         Hill
  Bulk  Modulus (GPa)     =     436.33681     436.33681     436.33681
  Shear Modulus (GPa)     =     592.29688     616.94319     604.62004
  Velocity S-wave (km/s)  =      12.99653      13.26418      13.13104
  Velocity P-wave (km/s)  =      18.69884      18.94778      18.82372
  Compressibility (1/GPa) =    0.00229181
  Stress axis :                     x             y             z
  Youngs Moduli (GPa)     =    1040.66268    1040.66268    1040.66268
  Poissons Ratio (x)      =                     0.10250       0.10250
  Poissons Ratio (y)      =       0.10250                     0.10250
  Poissons Ratio (z)      =       0.10250       0.10250

  Piezoelectric Strain Matrix: (Units=C/m**2)

  Indices      1         2         3         4         5         6
       x    -0.00000  -0.00000  -0.00000  -0.00000  -0.00000  -0.00000
       y    -0.00000  -0.00000  -0.00000  -0.00000  -0.00000  -0.00000
       z    -0.00000  -0.00000  -0.00000  -0.00000  -0.00000  -0.00000

  Piezoelectric Stress Matrix: (Units=10**-11 C/N)

  Indices      1         2         3         4         5         6
       x     0.00000   0.00000   0.00000   0.00000   0.00000   0.00000
       y     0.00000   0.00000   0.00000   0.00000   0.00000   0.00000
       z     0.00000   0.00000   0.00000   0.00000   0.00000   0.00000

  Static dielectric constant tensor :

              x         y         z
       x     1.00000   0.00000   0.00000
       y     0.00000   1.00000   0.00000
       z     0.00000   0.00000   1.00000

  Static refractive indices :

    1 =    1.00000      2 =    1.00000      3 =    1.00000

  Phonon Calculation :

  K direction for n-a correction at gamma =  1.00000  1.00000  1.00000

  Number of k points for this configuration =      248

[...]
 1518.00000 |                                                              0.000
 1518.50000 |                                                              0.000
 1519.00000 |                                                              0.000
 1519.50000 |                                                              0.000
 1520.00000 |                                                              0.000
 1520.50000 |                                                              0.000
 1521.00000 |                                                              0.000
 1521.50000 |                                                              0.000
 1522.00000 |***************                                               0.005
 1522.50000 |                                                              0.000
 1523.00000 |                                                              0.000
 1523.50000 |                                                              0.000
 1524.00000 |                                                              0.000
 1524.50000 |***************                                               0.005
 1525.00000 |                                                              0.000
 1525.50000 |                                                              0.000
 1526.00000 |                                                              0.000
 1526.50000 |                                                              0.000
 1527.00000 |                                                              0.000
 1527.50000 |******************************                                0.009
 1528.00000 |                                                              0.000
 1528.50000 |                                                              0.000
 1529.00000 |                                                              0.000
 1529.50000 |                                                              0.000
 1530.00000 |                                                              0.000
 1530.50000 |                                                              0.000
 1531.00000 |                                                              0.000
 1531.50000 |                                                              0.000
 1532.00000 |                                                              0.000
 1532.50000 |                                                              0.000
 1533.00000 |                                                              0.000
 1533.50000 |                                                              0.000
 1534.00000 |                                                              0.000
 1534.50000 |                                                              0.000
 1535.00000 |                                                              0.000
 1535.50000 |                                                              0.000
 1536.00000 |                                                              0.000
 1536.50000 |                                                              0.000
 1537.00000 |                                                              0.000
 1537.50000 |                                                              0.000
 1538.00000 |                                                              0.000
 1538.50000 |***************                                               0.005
 1539.00000 |******************************                                0.009
 1539.50000 |                                                              0.000
 1540.00000 |                                                              0.000
 1540.50000 |                                                              0.000
 1541.00000 |                                                              0.000
 1541.50000 |                                                              0.000
 1542.00000 |                                                              0.000
 1542.50000 |                                                              0.000
 1543.00000 |                                                              0.000
 1543.50000 |                                                              0.000
 1544.00000 |                                                              0.000
 1544.50000 |                                                              0.000
 1545.00000 |                                                              0.000
 1545.50000 |                                                              0.000
 1546.00000 |                                                              0.000
 1546.50000 |                                                              0.000
 1547.00000 |                                                              0.000
 1547.50000 |                                                              0.000
 1548.00000 |                                                              0.000
 1548.50000 |                                                              0.000
 1549.00000 |*****                                                         0.002
 1549.50000 |                                                              0.000
 1550.00000 |                                                              0.000
 1550.50000 |                                                              0.000
 1551.00000 |                                                              0.000
 1551.50000 |                                                              0.000
 1552.00000 |                                                              0.000
 1552.50000 |***************                                               0.005
 1553.00000 |                                                              0.000
 1553.50000 |                                                              0.000
 1554.00000 |                                                              0.000
 1554.50000 |                                                              0.000
 1555.00000 |                                                              0.000
 1555.50000 |                                                              0.000
 1556.00000 |                                                              0.000
 1556.50000 |                                                              0.000
 1557.00000 |                                                              0.000
 1557.50000 |                                                              0.000
 1558.00000 |                                                              0.000
 1558.50000 |                                                              0.000
 1559.00000 |                                                              0.000
 1559.50000 |*************************                                     0.008
 1560.00000 |                                                              0.000
 1560.50000 |                                                              0.000
 1561.00000 |                                                              0.000
 1561.50000 |                                                              0.000
 1562.00000 |                                                              0.000
 1562.50000 |                                                              0.000
 1563.00000 |                                                              0.000
 1563.50000 |                                                              0.000
 1564.00000 |                                                              0.000
 1564.50000 |                                                              0.000
 1565.00000 |                                                              0.000
 1565.50000 |                                                              0.000
 1566.00000 |                                                              0.000
 1566.50000 |                                                              0.000
 1567.00000 |*****                                                         0.002

  Phonon density of states written as diamond.dens

  Phonon dispersion curves :

  Section number =   1
  Frequency (cm-1) Phonon dispersion
  1515.24   |                                      *  *  *  *  *  *  *  *
  1452.10   |  *  *  *  *  *  *  *  *  *  *  *  *  *  *  *  *  *  *  *  *
  1388.97   |  *  *  *  *  *  *  *  *  *  *  *  *  *  *  *  *  *
  1325.83   |        *  *  *  *  *  *  *  *  *  *  *  *  *  *  *  *  *  *
  1262.70   |                          *  *  *  *  *
  1199.56   |                                         *  *  *
  1136.43   |                                                  *  *  *
  1073.29   |                                      *  *  *  *  *  *  *  *
  1010.16   |              *  *  *  *  *  *  *  *        *  *  *
   947.02   |  *  *  *  *  *  *  *              *  *  *
   883.89   |  *  *  *  *  *  *  *        *  *
   820.75   |     *  *  *        *  *  *  *  *  *
   757.62   |        *  *  *  *  *                 *  *  *  *  *  *  *  *
   694.48   |  *  *  *              *  *  *  *  *
   631.35   |           *  *  *  *  *  *  *        *  *  *  *  *  *  *  *
   568.21   |                                *  *  *  *  *
   505.08   |
   441.94   |
   378.81   |
   315.67   |
   252.54   |
   189.40   |
   126.27   |
    63.13   |
     0.00   |
  Section number =   2
  Frequency (cm-1) Phonon dispersion
  1515.24   |  *  *  *  *  *  *  *  *  *  *  *  *  *  *  *  *  *  *  *  *
  1452.10   |  *  *  *  *  *  *  *  *  *  *
  1388.97   |           *  *  *  *  *        *  *  *  *
  1325.83   |  *  *  *  *  *  *  *  *  *  *  *  *  *  *  *  *  *  *
  1262.70   |                                      *  *  *  *  *  *  *  *
  1199.56   |                                      *  *  *  *  *  *  *  *
  1136.43   |           *  *  *  *  *  *  *  *  *  *  *  *
  1073.29   |  *  *  *  *  *  *  *  *  *  *  *  *  *  *  *  *  *
  1010.16   |                          *  *              *  *  *  *  *  *
   947.02   |                    *  *              *  *
   883.89   |              *  *           *  *  *
   820.75   |        *  *           *  *
   757.62   |  *  *        *  *  *
   694.48   |     *  *  *
   631.35   |  *  *     *
   568.21   |     *  *     *  *
   505.08   |           *  *     *
   441.94   |                 *  *  *  *
   378.81   |                       *  *  *  *
   315.67   |                             *     *
   252.54   |                                *  *  *  *
   189.40   |                                      *  *  *
   126.27   |                                            *  *  *
    63.13   |                                                  *  *
     0.00   |                                                        *  *
  Section number =   3
  Frequency (cm-1) Phonon dispersion
  1515.24   |  *  *  *  *  *  *  *  *  *  *  *  *  *  *  *  *  *  *  *  *
  1452.10   |                                *  *  *  *  *  *  *  *  *  *
  1388.97   |                    *  *  *  *        *  *  *  *  *
  1325.83   |        *  *  *  *  *  *  *  *  *  *  *  *  *  *  *  *  *  *
  1262.70   |  *  *  *  *  *  *  *  *
  1199.56   |  *  *  *  *  *  *  *  *
  1136.43   |                 *  *  *  *  *  *  *  *  *  *  *  *
  1073.29   |           *  *  *  *  *  *  *  *  *  *  *  *  *  *  *  *  *
  1010.16   |  *  *  *  *  *  *              *  *
   947.02   |                    *  *              *  *
   883.89   |                          *  *  *           *  *
   820.75   |                                   *  *           *  *
   757.62   |                                         *  *  *        *  *
   694.48   |                                                  *  *  *
   631.35   |                                                  *     *  *
   568.21   |                                            *  *     *  *
   505.08   |                                         *     *  *
   441.94   |                                   *  *  *  *
   378.81   |                             *  *  *  *
   315.67   |                          *     *
   252.54   |                    *  *  *  *
   189.40   |                 *  *  *
   126.27   |           *  *  *
    63.13   |        *  *
     0.00   |  *  *
  Section number =   4
  Frequency (cm-1) Phonon dispersion
  1515.24   |  *  *  *  *  *  *  *  *
  1452.10   |  *  *  *  *  *  *  *  *  *  *  *  *  *  *  *  *  *  *  *  *
  1388.97   |           *  *  *  *  *  *  *  *  *  *  *  *  *  *  *  *  *
  1325.83   |  *  *  *  *  *  *  *  *  *  *  *  *  *  *  *  *  *  *
  1262.70   |                       *  *  *  *  *
  1199.56   |              *  *  *
  1136.43   |     *  *  *
  1073.29   |  *  *  *  *  *  *  *  *
  1010.16   |           *  *  *        *  *  *  *  *  *  *  *
   947.02   |                    *  *  *              *  *  *  *  *  *  *
   883.89   |                             *  *        *  *  *  *  *  *  *
   820.75   |                          *  *  *  *  *  *        *  *  *
   757.62   |  *  *  *  *  *  *  *  *                 *  *  *  *  *
   694.48   |                          *  *  *  *  *              *  *  *
   631.35   |  *  *  *  *  *  *  *  *        *  *  *  *  *  *  *
   568.21   |                 *  *  *  *  *
   505.08   |
   441.94   |
   378.81   |
   315.67   |
   252.54   |
   189.40   |
   126.27   |
    63.13   |
     0.00   |
  Section number =   5
  Frequency (cm-1) Phonon dispersion
  1515.24   |
  1452.10   |  *  *  *  *  *  *  *  *  *  *  *  *  *  *  *  *  *  *  *  *
  1388.97   |  *  *  *  *  *  *  *  *  *  *  *  *  *  *  *  *  *  *  *  *
  1325.83   |
  1262.70   |
  1199.56   |
  1136.43   |                                                  *  *  *  *
  1073.29   |                                *  *  *  *  *  *
  1010.16   |                 *  *  *  *  *
   947.02   |  *  *  *  *  *
   883.89   |  *
   820.75   |     *  *  *  *  *  *
   757.62   |                       *  *  *  *  *
   694.48   |  *  *  *  *  *  *  *  *  *  *  *  *  *  *  *  *  *  *  *  *
   631.35   |
   568.21   |
   505.08   |
   441.94   |
   378.81   |
   315.67   |
   252.54   |
   189.40   |
   126.27   |
    63.13   |
     0.00   |
  Section number =   6
  Frequency (cm-1) Phonon dispersion
  1515.24   |
  1452.10   |  *  *  *  *  *  *  *  *  *  *  *  *  *  *  *  *  *  *  *  *
  1388.97   |  *  *  *  *  *  *  *  *  *  *  *  *  *  *  *  *  *  *  *  *
  1325.83   |
  1262.70   |
  1199.56   |
  1136.43   |  *  *  *  *
  1073.29   |              *  *  *  *  *  *
  1010.16   |                                *  *  *  *  *
   947.02   |                                               *  *  *  *  *
   883.89   |                                                           *
   820.75   |                                         *  *  *  *  *  *
   757.62   |                          *  *  *  *  *
   694.48   |  *  *  *  *  *  *  *  *  *  *  *  *  *  *  *  *  *  *  *  *
   631.35   |
   568.21   |
   505.08   |
   441.94   |
   378.81   |
   315.67   |
   252.54   |
   189.40   |
   126.27   |
    63.13   |
     0.00   |
  Section number =   7
  Frequency (cm-1) Phonon dispersion
  1515.24   |                                      *  *  *  *  *  *  *  *
  1452.10   |  *  *  *  *  *  *  *  *  *  *  *  *  *  *  *  *  *  *  *  *
  1388.97   |  *  *  *  *  *  *  *  *  *  *  *  *  *  *  *  *  *
  1325.83   |        *  *  *  *  *  *  *  *  *  *  *  *  *  *  *  *  *  *
  1262.70   |                          *  *  *  *  *
  1199.56   |                                         *  *  *
  1136.43   |                                                  *  *  *
  1073.29   |                                      *  *  *  *  *  *  *  *
  1010.16   |              *  *  *  *  *  *  *  *        *  *  *
   947.02   |  *  *  *  *  *  *  *              *  *  *
   883.89   |  *  *  *  *  *  *  *        *  *
   820.75   |     *  *  *        *  *  *  *  *  *
   757.62   |        *  *  *  *  *                 *  *  *  *  *  *  *  *
   694.48   |  *  *  *              *  *  *  *  *
   631.35   |           *  *  *  *  *  *  *        *  *  *  *  *  *  *  *
   568.21   |                                *  *  *  *  *
   505.08   |
   441.94   |
   378.81   |
   315.67   |
   252.54   |
   189.40   |
   126.27   |
    63.13   |
     0.00   |

  Phonon dispersion written as diamond.disp

  Time to end of properties =      12.9160 seconds

  Timing analysis for GULP :

  Task / Subroutine                                          Time (Seconds)
  Calculation of real space energy and derivatives                0.0006
  Calculation of Brenner energy and derivatives                   8.8904
  Calculation of phonons                                         10.8791
  Global summation overhead                                       1.6973

  Job Finished at 19:51.39 24th May        2021