  Job Started  at 17:51.45 19th April      2021

  Number of CPUs =    12

  Host name      = p1

  Total number of configurations input =      1

*  Input for Configuration =   1                                               *

  Formula = C512

  Number of irreducible atoms/shells =     512

  Total number atoms/shells =     512

  Dimensionality = 3               :  Bulk

  Cartesian lattice vectors (Angstroms) :

       15.291153    0.000000    0.000000
        0.000000   15.291153    0.000000
        0.000000    0.000000   15.291153

  Cell parameters (Angstroms/Degrees):

  a =      15.2912    alpha =  90.0000
  b =      15.2912    beta  =  90.0000
  c =      15.2912    gamma =  90.0000

  Initial cell volume =        3575.367609 Angs**3

  Temperature of configuration =  0.000     K

  Pressure of configuration =         0.000 GPa

  Fractional coordinates of asymmetric unit :

   No.  Atomic       x           y          z         Charge      Occupancy
        Label      (Frac)      (Frac)     (Frac)        (e)         (Frac)
      1 C     c    0.408703    0.954607    0.993939     0.00000    1.000000
      2 C     c    0.031560    0.056186    0.682953     0.00000    1.000000
      3 C     c    0.345771    0.933750    0.704668     0.00000    1.000000
      4 C     c    0.320247    0.494796    0.487855     0.00000    1.000000
      5 C     c    0.090433    0.050828    0.537107     0.00000    1.000000
      6 C     c    0.042048    0.741553    0.547084     0.00000    1.000000
      7 C     c    0.889014    0.225766    0.913491     0.00000    1.000000
      8 C     c    0.669180    0.309145    0.265346     0.00000    1.000000
      9 C     c    0.976601    0.172061    0.553142     0.00000    1.000000
     10 C     c    0.521797    0.376903    0.895027     0.00000    1.000000
     11 C     c    0.471582    0.556011    0.580953     0.00000    1.000000
     12 C     c    0.696995    0.329396    0.369059     0.00000    1.000000
     13 C     c    0.041209    0.080932    0.363688     0.00000    1.000000
     14 C     c    0.544097    0.317165    0.102670     0.00000    1.000000
     15 C     c    0.088603    0.000778    0.356279     0.00000    1.000000
     16 C     c    0.944948    0.075407    0.866917     0.00000    1.000000
     17 C     c    0.494698    0.769170    0.265725     0.00000    1.000000
     18 C     c    0.606480    0.232779    0.943609     0.00000    1.000000
     19 C     c    0.437861    0.415972    0.760422     0.00000    1.000000
     20 C     c    0.431202    0.794648    0.817681     0.00000    1.000000
     21 C     c    0.543564    0.692220    0.877319     0.00000    1.000000
     22 C     c    0.445020    0.292119    0.070776     0.00000    1.000000
     23 C     c    0.296005    0.776727    0.293238     0.00000    1.000000
     24 C     c    0.191634    0.376383    0.645128     0.00000    1.000000
     25 C     c    0.096393    0.479930    0.427509     0.00000    1.000000
     26 C     c    0.465563    0.321239    0.241122     0.00000    1.000000
     27 C     c    0.765573    0.388963    0.327497     0.00000    1.000000
     28 C     c    0.087521    0.825954    0.531123     0.00000    1.000000
     29 C     c    0.087710    0.137899    0.218975     0.00000    1.000000
     30 C     c    0.021019    0.280504    0.675677     0.00000    1.000000
     31 C     c    0.104137    0.826848    0.431000     0.00000    1.000000
     32 C     c    0.285717    0.344926    0.137383     0.00000    1.000000
     33 C     c    0.522268    0.770468    0.520207     0.00000    1.000000
     34 C     c    0.337928    0.108753    0.934810     0.00000    1.000000
     35 C     c    0.142228    0.369547    0.268632     0.00000    1.000000
     36 C     c    0.452929    0.163861    0.216918     0.00000    1.000000
     37 C     c    0.678301    0.435505    0.832578     0.00000    1.000000
     38 C     c    0.384902    0.172080    0.855910     0.00000    1.000000
     39 C     c    0.220087    0.606360    0.423033     0.00000    1.000000
     40 C     c    0.036128    0.381193    0.698556     0.00000    1.000000
     41 C     c    0.423894    0.625781    0.461698     0.00000    1.000000
     42 C     c    0.297560    0.393137    0.510466     0.00000    1.000000
     43 C     c    0.307680    0.266348    0.192989     0.00000    1.000000
     44 C     c    0.073740    0.503157    0.524829     0.00000    1.000000
     45 C     c    0.712536    0.953339    0.978571     0.00000    1.000000
     46 C     c    0.486471    0.146694    0.357471     0.00000    1.000000
     47 C     c    0.998151    0.753780    0.152280     0.00000    1.000000
     48 C     c    0.602112    0.230064    0.142624     0.00000    1.000000
     49 C     c    0.228748    0.238675    0.917614     0.00000    1.000000
     50 C     c    0.277353    0.557841    0.274957     0.00000    1.000000
     51 C     c    0.693753    0.884352    0.634214     0.00000    1.000000
     52 C     c    0.142931    0.063338    0.049973     0.00000    1.000000
     53 C     c    0.788544    0.411413    0.006250     0.00000    1.000000
     54 C     c    0.222009    0.080087    0.114579     0.00000    1.000000
     55 C     c    0.225985    0.222609    0.236266     0.00000    1.000000
     56 C     c    0.682611    0.681536    0.121930     0.00000    1.000000
     57 C     c    0.332510    0.464059    0.655773     0.00000    1.000000
     58 C     c    0.824324    0.624713    0.368674     0.00000    1.000000
     59 C     c    0.401122    0.184714    0.312947     0.00000    1.000000
     60 C     c    0.408919    0.579296    0.865523     0.00000    1.000000
[...]
    498 C     c    0.482614    0.143373    0.811266     0.00000    1.000000
    499 C     c    0.551639    0.535259    0.938464     0.00000    1.000000
    500 C     c    0.402361    0.124252    0.015938     0.00000    1.000000
    501 C     c    0.908330    0.790588    0.398164     0.00000    1.000000
    502 C     c    0.351331    0.311413    0.656719     0.00000    1.000000
    503 C     c    0.619272    0.969271    0.178420     0.00000    1.000000
    504 C     c    0.758739    0.017579    0.449563     0.00000    1.000000
    505 C     c    0.850979    0.512881    0.750063     0.00000    1.000000
    506 C     c    0.844794    0.078328    0.537522     0.00000    1.000000
    507 C     c    0.967877    0.604064    0.182763     0.00000    1.000000
    508 C     c    0.656912    0.889268    0.721637     0.00000    1.000000
    509 C     c    0.322373    0.759078    0.206728     0.00000    1.000000
    510 C     c    0.145600    0.767408    0.944256     0.00000    1.000000
    511 C     c    0.047900    0.156210    0.308961     0.00000    1.000000
    512 C     c    0.093400    0.176450    0.948390     0.00000    1.000000

  Brillouin zone sampling points :

  Point number          x          y          z            Weight
        1           0.500000   0.000000   0.500000     0.00714286
        2           0.473684   0.000000   0.500000     0.00714286
        3           0.447368   0.000000   0.500000     0.00714286
        4           0.421053   0.000000   0.500000     0.00714286
        5           0.394737   0.000000   0.500000     0.00714286
        6           0.368421   0.000000   0.500000     0.00714286
        7           0.342105   0.000000   0.500000     0.00714286
        8           0.315789   0.000000   0.500000     0.00714286
        9           0.289474   0.000000   0.500000     0.00714286
       10           0.263158   0.000000   0.500000     0.00714286
       11           0.236842   0.000000   0.500000     0.00714286
       12           0.210526   0.000000   0.500000     0.00714286
       13           0.184211   0.000000   0.500000     0.00714286
       14           0.157895   0.000000   0.500000     0.00714286
       15           0.131579   0.000000   0.500000     0.00714286
       16           0.105263   0.000000   0.500000     0.00714286
       17           0.078947   0.000000   0.500000     0.00714286
       18           0.052632   0.000000   0.500000     0.00714286
       19           0.026316   0.000000   0.500000     0.00714286
       20           0.000000   0.000000   0.500000     0.00714286
       21           0.000000   0.000000   0.500000     0.00714286
       22           0.000000   0.000000   0.473684     0.00714286
       23           0.000000   0.000000   0.447368     0.00714286
       24           0.000000   0.000000   0.421053     0.00714286
       25           0.000000   0.000000   0.394737     0.00714286
       26           0.000000   0.000000   0.368421     0.00714286
       27           0.000000   0.000000   0.342105     0.00714286
       28           0.000000   0.000000   0.315789     0.00714286
       29           0.000000   0.000000   0.289474     0.00714286
       30           0.000000   0.000000   0.263158     0.00714286
       31           0.000000   0.000000   0.236842     0.00714286
       32           0.000000   0.000000   0.210526     0.00714286
       33           0.000000   0.000000   0.184211     0.00714286
       34           0.000000   0.000000   0.157895     0.00714286
       35           0.000000   0.000000   0.131579     0.00714286
       36           0.000000   0.000000   0.105263     0.00714286
       37           0.000000   0.000000   0.078947     0.00714286
       38           0.000000   0.000000   0.052632     0.00714286
       39           0.000000   0.000000   0.026316     0.00714286
       40           0.000000   0.000000   0.000000     0.00714286
       41           0.000000   0.000000   0.000000     0.00714286
       42           0.026316   0.000000   0.000000     0.00714286
       43           0.052632   0.000000   0.000000     0.00714286
       44           0.078947   0.000000   0.000000     0.00714286
       45           0.105263   0.000000   0.000000     0.00714286
       46           0.131579   0.000000   0.000000     0.00714286
       47           0.157895   0.000000   0.000000     0.00714286
       48           0.184211   0.000000   0.000000     0.00714286
       49           0.210526   0.000000   0.000000     0.00714286
       50           0.236842   0.000000   0.000000     0.00714286
       51           0.263158   0.000000   0.000000     0.00714286
       52           0.289474   0.000000   0.000000     0.00714286
       53           0.315789   0.000000   0.000000     0.00714286
       54           0.342105   0.000000   0.000000     0.00714286
       55           0.368421   0.000000   0.000000     0.00714286
       56           0.394737   0.000000   0.000000     0.00714286
       57           0.421053   0.000000   0.000000     0.00714286
       58           0.447368   0.000000   0.000000     0.00714286
       59           0.473684   0.000000   0.000000     0.00714286
       60           0.500000   0.000000   0.000000     0.00714286
[...]
      126           0.000000   0.500000   0.368421     0.00714286
      127           0.000000   0.500000   0.342105     0.00714286
      128           0.000000   0.500000   0.315789     0.00714286
      129           0.000000   0.500000   0.289474     0.00714286
      130           0.000000   0.500000   0.263158     0.00714286
[...]
                                         =    Parry          (2-D)
                                         =    Saunders et al (1-D)
  Accuracy factor for lattice sums       =   12.000

  Time limit = Infinity

  Maximum range for interatomic potentials =    100000.000000 Angstroms

  Brenner et al 2002 potential to be used with explicit splines for P

*  Output for configuration   1                                                *

  Components of energy :

  Interatomic potentials     =           0.00000000 eV
  Brenner potentials         =       -3399.16296551 eV
  Monopole - monopole (real) =           0.00000000 eV
  Monopole - monopole (recip)=           0.00000000 eV
  Monopole - monopole (total)=           0.00000000 eV
  Total lattice energy       =       -3399.16296551 eV
  Total lattice energy       =         -327967.2652 kJ/(mole unit cells)

  Elastic Constant Matrix: (Units=GPa)

  Indices      1         2         3         4         5         6
       1    374.8311  139.2803  129.2905    1.3519   24.4427  -20.4561
       2    139.2803  399.8407  147.2593    1.3102   -1.6115  -23.8749
       3    129.2905  147.2593  369.8558   -0.9691   17.8270    4.4280
       4      1.3519    1.3102   -0.9691  139.9202   -7.7997   -4.3081
       5     24.4427   -1.6115   17.8270   -7.7997  125.9111    0.2047
       6    -20.4561  -23.8749    4.4280   -4.3081    0.2047  132.6285

  Elastic Constant Tensor Eigenvalues: (Units=GPa)

     1 =   118.6000     2 =   126.9476     3 =   143.3557
     4 =   241.5211     5 =   250.9090     6 =   661.6539

  Elastic Compliance Matrix: (Units=1/GPa)

  Indices      1         2         3         4         5         6
       1    0.003313 -0.000837 -0.000803 -0.000048 -0.000544  0.000386
       2   -0.000837  0.003191 -0.001000  0.000005  0.000344  0.000478
       3   -0.000803 -0.001000  0.003404  0.000009 -0.000338 -0.000417
       4   -0.000048  0.000005  0.000009  0.007180  0.000453  0.000226
       5   -0.000544  0.000344 -0.000338  0.000453  0.008128 -0.000008
       6    0.000386  0.000478 -0.000417  0.000226 -0.000008  0.007707

  Mechanical properties :

  Convention :                    Reuss         Voigt         Hill
  Bulk  Modulus (GPa)     =     216.14103     219.57641     217.85872
  Shear Modulus (GPa)     =     125.80157     128.27178     127.03667
  Velocity S-wave (km/s)  =       6.63696       6.70180       6.66946
  Velocity P-wave (km/s)  =      11.59369      11.69486      11.64438
  Compressibility (1/GPa) =    0.00462661
  Stress axis :                     x             y             z
  Youngs Moduli (GPa)     =     301.86923     313.39482     293.76659
  Poissons Ratio (x)      =                     0.26233       0.23598
  Poissons Ratio (y)      =       0.25268                     0.29381
  Poissons Ratio (z)      =       0.24249       0.31344

  Piezoelectric Strain Matrix: (Units=C/m**2)

  Indices      1         2         3         4         5         6
       x    -0.00000  -0.00000  -0.00000  -0.00000  -0.00000  -0.00000
       y    -0.00000  -0.00000  -0.00000  -0.00000  -0.00000  -0.00000
       z    -0.00000  -0.00000  -0.00000  -0.00000  -0.00000  -0.00000

  Piezoelectric Stress Matrix: (Units=10**-11 C/N)

  Indices      1         2         3         4         5         6
       x     0.00000   0.00000   0.00000   0.00000   0.00000   0.00000
       y     0.00000   0.00000   0.00000   0.00000   0.00000   0.00000
       z     0.00000   0.00000   0.00000   0.00000   0.00000   0.00000

  Static dielectric constant tensor :

              x         y         z
       x     1.00000   0.00000   0.00000
       y     0.00000   1.00000   0.00000
       z     0.00000   0.00000   1.00000

  Static refractive indices :

    1 =    1.00000      2 =    1.00000      3 =    1.00000

  Phonon Calculation :

  K direction for n-a correction at gamma =  1.00000  1.00000  1.00000

  Number of k points for this configuration =      140

  Phonon properties (per mole of unit cells): Temperature =      0.000 K
  Zero point energy            =       95.071439 eV

  Phonon dispersion curves :

  Section number =   1
  Frequency (cm-1) Phonon dispersion
  4191.54   |  *  *  *  *  *  *  *  *  *  *  *  *  *  *  *  *  *  *  *  *
  4016.90   |
  3842.25   |
  3667.60   |  *  *  *  *  *  *  *  *  *  *  *  *  *  *  *  *  *  *  *  *
  3492.95   |  *  *  *  *  *  *  *  *  *  *  *  *  *  *  *  *  *  *  *  *
  3318.31   |
  3143.66   |  *  *  *  *  *  *  *  *  *  *  *  *  *  *  *  *  *  *  *  *
  2969.01   |  *  *  *  *  *  *  *  *  *  *  *  *  *  *  *  *  *  *  *  *
  2794.36   |  *  *  *  *  *  *  *  *  *  *  *  *  *  *  *  *  *  *  *  *
  2619.72   |  *  *  *  *  *  *  *  *  *  *  *  *  *  *  *  *  *  *  *  *
  2445.07   |  *  *  *  *  *  *  *  *  *  *  *  *  *  *  *  *  *  *  *  *
  2270.42   |  *  *  *  *  *  *  *  *  *  *  *  *  *  *  *  *  *  *  *  *
  2095.77   |  *  *  *  *  *  *  *  *  *  *  *  *  *  *  *  *  *  *  *  *
  1921.12   |  *  *  *  *  *  *  *  *  *  *  *  *  *  *  *  *  *  *  *  *
  1746.48   |  *  *  *  *  *  *  *  *  *  *  *  *  *  *  *  *  *  *  *  *
  1571.83   |  *  *  *  *  *  *  *  *  *  *  *  *  *  *  *  *  *  *  *  *
  1397.18   |  *  *  *  *  *  *  *  *  *  *  *  *  *  *  *  *  *  *  *  *
  1222.53   |  *  *  *  *  *  *  *  *  *  *  *  *  *  *  *  *  *  *  *  *
  1047.89   |  *  *  *  *  *  *  *  *  *  *  *  *  *  *  *  *  *  *  *  *
   873.24   |  *  *  *  *  *  *  *  *  *  *  *  *  *  *  *  *  *  *  *  *
   698.59   |  *  *  *  *  *  *  *  *  *  *  *  *  *  *  *  *  *  *  *  *
   523.94   |  *  *  *  *  *  *  *  *  *  *  *  *  *  *  *  *  *  *  *  *
   349.30   |  *  *  *  *  *  *  *  *  *  *  *  *  *  *  *  *  *  *  *  *
   174.65   |  *  *  *  *  *  *  *  *  *  *  *  *  *  *  *  *  *  *  *  *
     0.00   |  *  *  *  *  *  *  *  *  *  *  *  *  *  *  *  *  *  *  *  *
  Section number =   2
  Frequency (cm-1) Phonon dispersion
  4191.54   |  *  *  *  *  *  *  *  *  *  *  *  *  *  *  *  *  *  *  *  *
  4016.90   |
  3842.25   |
  3667.60   |  *  *  *  *  *  *  *  *  *  *  *  *  *  *  *  *  *  *  *  *
  3492.95   |  *  *  *  *  *  *  *  *  *  *  *  *  *  *  *  *  *  *  *  *
  3318.31   |
  3143.66   |  *  *  *  *  *  *  *  *  *  *  *  *  *  *  *  *  *  *  *  *
  2969.01   |  *  *  *  *  *  *  *  *  *  *  *  *  *  *  *  *  *  *  *  *
  2794.36   |  *  *  *  *  *  *  *  *  *  *  *  *  *  *  *  *  *  *  *  *
  2619.72   |  *  *  *  *  *  *  *  *  *  *  *  *  *  *  *  *  *  *  *  *
  2445.07   |  *  *  *  *  *  *  *  *  *  *  *  *  *  *  *  *  *  *  *  *
  2270.42   |  *  *  *  *  *  *  *  *  *  *  *  *  *  *  *  *  *  *  *  *
  2095.77   |  *  *  *  *  *  *  *  *  *  *  *  *  *  *  *  *  *  *  *  *
  1921.12   |  *  *  *  *  *  *  *  *  *  *  *  *  *  *  *  *  *  *  *  *
  1746.48   |  *  *  *  *  *  *  *  *  *  *  *  *  *  *  *  *  *  *  *  *
  1571.83   |  *  *  *  *  *  *  *  *  *  *  *  *  *  *  *  *  *  *  *  *
  1397.18   |  *  *  *  *  *  *  *  *  *  *  *  *  *  *  *  *  *  *  *  *
  1222.53   |  *  *  *  *  *  *  *  *  *  *  *  *  *  *  *  *  *  *  *  *
  1047.89   |  *  *  *  *  *  *  *  *  *  *  *  *  *  *  *  *  *  *  *  *
   873.24   |  *  *  *  *  *  *  *  *  *  *  *  *  *  *  *  *  *  *  *  *
   698.59   |  *  *  *  *  *  *  *  *  *  *  *  *  *  *  *  *  *  *  *  *
   523.94   |  *  *  *  *  *  *  *  *  *  *  *  *  *  *  *  *  *  *  *  *
   349.30   |  *  *  *  *  *  *  *  *  *  *  *  *  *  *  *  *  *  *  *  *
   174.65   |  *  *  *  *  *  *  *  *  *  *  *  *  *  *  *  *  *  *  *  *
     0.00   |  *  *  *  *  *  *  *  *  *  *  *  *  *  *  *  *  *  *  *  *
  Section number =   3
  Frequency (cm-1) Phonon dispersion
  4191.54   |  *  *  *  *  *  *  *  *  *  *  *  *  *  *  *  *  *  *  *  *
  4016.90   |
  3842.25   |
  3667.60   |  *  *  *  *  *  *  *  *  *  *  *  *  *  *  *  *  *  *  *  *
  3492.95   |  *  *  *  *  *  *  *  *  *  *  *  *  *  *  *  *  *  *  *  *
  3318.31   |
  3143.66   |  *  *  *  *  *  *  *  *  *  *  *  *  *  *  *  *  *  *  *  *
  2969.01   |  *  *  *  *  *  *  *  *  *  *  *  *  *  *  *  *  *  *  *  *
  2794.36   |  *  *  *  *  *  *  *  *  *  *  *  *  *  *  *  *  *  *  *  *
  2619.72   |  *  *  *  *  *  *  *  *  *  *  *  *  *  *  *  *  *  *  *  *
  2445.07   |  *  *  *  *  *  *  *  *  *  *  *  *  *  *  *  *  *  *  *  *
  2270.42   |  *  *  *  *  *  *  *  *  *  *  *  *  *  *  *  *  *  *  *  *
  2095.77   |  *  *  *  *  *  *  *  *  *  *  *  *  *  *  *  *  *  *  *  *
  1921.12   |  *  *  *  *  *  *  *  *  *  *  *  *  *  *  *  *  *  *  *  *
  1746.48   |  *  *  *  *  *  *  *  *  *  *  *  *  *  *  *  *  *  *  *  *
  1571.83   |  *  *  *  *  *  *  *  *  *  *  *  *  *  *  *  *  *  *  *  *
  1397.18   |  *  *  *  *  *  *  *  *  *  *  *  *  *  *  *  *  *  *  *  *
  1222.53   |  *  *  *  *  *  *  *  *  *  *  *  *  *  *  *  *  *  *  *  *
  1047.89   |  *  *  *  *  *  *  *  *  *  *  *  *  *  *  *  *  *  *  *  *
   873.24   |  *  *  *  *  *  *  *  *  *  *  *  *  *  *  *  *  *  *  *  *
   698.59   |  *  *  *  *  *  *  *  *  *  *  *  *  *  *  *  *  *  *  *  *
   523.94   |  *  *  *  *  *  *  *  *  *  *  *  *  *  *  *  *  *  *  *  *
   349.30   |  *  *  *  *  *  *  *  *  *  *  *  *  *  *  *  *  *  *  *  *
   174.65   |  *  *  *  *  *  *  *  *  *  *  *  *  *  *  *  *  *  *  *  *
     0.00   |  *  *  *  *  *  *  *  *  *  *  *  *  *  *  *  *  *  *  *  *
  Section number =   4
  Frequency (cm-1) Phonon dispersion
  4191.54   |  *  *  *  *  *  *  *  *  *  *  *  *  *  *  *  *  *  *  *  *
  4016.90   |
  3842.25   |
  3667.60   |  *  *  *  *  *  *  *  *  *  *  *  *  *  *  *  *  *  *  *  *
  3492.95   |  *  *  *  *  *  *  *  *  *  *  *  *  *  *  *  *  *  *  *  *
  3318.31   |
  3143.66   |  *  *  *  *  *  *  *  *  *  *  *  *  *  *  *  *  *  *  *  *
  2969.01   |  *  *  *  *  *  *  *  *  *  *  *  *  *  *  *  *  *  *  *  *
  2794.36   |  *  *  *  *  *  *  *  *  *  *  *  *  *  *  *  *  *  *  *  *
  2619.72   |  *  *  *  *  *  *  *  *  *  *  *  *  *  *  *  *  *  *  *  *
  2445.07   |  *  *  *  *  *  *  *  *  *  *  *  *  *  *  *  *  *  *  *  *
  2270.42   |  *  *  *  *  *  *  *  *  *  *  *  *  *  *  *  *  *  *  *  *
  2095.77   |  *  *  *  *  *  *  *  *  *  *  *  *  *  *  *  *  *  *  *  *
  1921.12   |  *  *  *  *  *  *  *  *  *  *  *  *  *  *  *  *  *  *  *  *
  1746.48   |  *  *  *  *  *  *  *  *  *  *  *  *  *  *  *  *  *  *  *  *
  1571.83   |  *  *  *  *  *  *  *  *  *  *  *  *  *  *  *  *  *  *  *  *
  1397.18   |  *  *  *  *  *  *  *  *  *  *  *  *  *  *  *  *  *  *  *  *
  1222.53   |  *  *  *  *  *  *  *  *  *  *  *  *  *  *  *  *  *  *  *  *
  1047.89   |  *  *  *  *  *  *  *  *  *  *  *  *  *  *  *  *  *  *  *  *
   873.24   |  *  *  *  *  *  *  *  *  *  *  *  *  *  *  *  *  *  *  *  *
   698.59   |  *  *  *  *  *  *  *  *  *  *  *  *  *  *  *  *  *  *  *  *
   523.94   |  *  *  *  *  *  *  *  *  *  *  *  *  *  *  *  *  *  *  *  *
   349.30   |  *  *  *  *  *  *  *  *  *  *  *  *  *  *  *  *  *  *  *  *
   174.65   |  *  *  *  *  *  *  *  *  *  *  *  *  *  *  *  *  *  *  *  *
     0.00   |  *  *  *  *  *  *  *  *  *  *  *  *  *  *  *  *  *  *  *  *
  Section number =   5
  Frequency (cm-1) Phonon dispersion
  4191.54   |  *  *  *  *  *  *  *  *  *  *  *  *  *  *  *  *  *  *  *  *
  4016.90   |
  3842.25   |
  3667.60   |  *  *  *  *  *  *  *  *  *  *  *  *  *  *  *  *  *  *  *  *
  3492.95   |  *  *  *  *  *  *  *  *  *  *  *  *  *  *  *  *  *  *  *  *
  3318.31   |
  3143.66   |  *  *  *  *  *  *  *  *  *  *  *  *  *  *  *  *  *  *  *  *
  2969.01   |  *  *  *  *  *  *  *  *  *  *  *  *  *  *  *  *  *  *  *  *
  2794.36   |  *  *  *  *  *  *  *  *  *  *  *  *  *  *  *  *  *  *  *  *
  2619.72   |  *  *  *  *  *  *  *  *  *  *  *  *  *  *  *  *  *  *  *  *
  2445.07   |  *  *  *  *  *  *  *  *  *  *  *  *  *  *  *  *  *  *  *  *
  2270.42   |  *  *  *  *  *  *  *  *  *  *  *  *  *  *  *  *  *  *  *  *
  2095.77   |  *  *  *  *  *  *  *  *  *  *  *  *  *  *  *  *  *  *  *  *
  1921.12   |  *  *  *  *  *  *  *  *  *  *  *  *  *  *  *  *  *  *  *  *
  1746.48   |  *  *  *  *  *  *  *  *  *  *  *  *  *  *  *  *  *  *  *  *
  1571.83   |  *  *  *  *  *  *  *  *  *  *  *  *  *  *  *  *  *  *  *  *
  1397.18   |  *  *  *  *  *  *  *  *  *  *  *  *  *  *  *  *  *  *  *  *
  1222.53   |  *  *  *  *  *  *  *  *  *  *  *  *  *  *  *  *  *  *  *  *
  1047.89   |  *  *  *  *  *  *  *  *  *  *  *  *  *  *  *  *  *  *  *  *
   873.24   |  *  *  *  *  *  *  *  *  *  *  *  *  *  *  *  *  *  *  *  *
   698.59   |  *  *  *  *  *  *  *  *  *  *  *  *  *  *  *  *  *  *  *  *
   523.94   |  *  *  *  *  *  *  *  *  *  *  *  *  *  *  *  *  *  *  *  *
   349.30   |  *  *  *  *  *  *  *  *  *  *  *  *  *  *  *  *  *  *  *  *
   174.65   |  *  *  *  *  *  *  *  *  *  *  *  *  *  *  *  *  *  *  *  *
     0.00   |  *  *  *  *  *  *  *  *  *  *  *  *  *  *  *  *  *  *  *  *
  Section number =   6
  Frequency (cm-1) Phonon dispersion
  4191.54   |  *  *  *  *  *  *  *  *  *  *  *  *  *  *  *  *  *  *  *  *
  4016.90   |
  3842.25   |
  3667.60   |  *  *  *  *  *  *  *  *  *  *  *  *  *  *  *  *  *  *  *  *
  3492.95   |  *  *  *  *  *  *  *  *  *  *  *  *  *  *  *  *  *  *  *  *
  3318.31   |
  3143.66   |  *  *  *  *  *  *  *  *  *  *  *  *  *  *  *  *  *  *  *  *
  2969.01   |  *  *  *  *  *  *  *  *  *  *  *  *  *  *  *  *  *  *  *  *
  2794.36   |  *  *  *  *  *  *  *  *  *  *  *  *  *  *  *  *  *  *  *  *
  2619.72   |  *  *  *  *  *  *  *  *  *  *  *  *  *  *  *  *  *  *  *  *
  2445.07   |  *  *  *  *  *  *  *  *  *  *  *  *  *  *  *  *  *  *  *  *
  2270.42   |  *  *  *  *  *  *  *  *  *  *  *  *  *  *  *  *  *  *  *  *
  2095.77   |  *  *  *  *  *  *  *  *  *  *  *  *  *  *  *  *  *  *  *  *
  1921.12   |  *  *  *  *  *  *  *  *  *  *  *  *  *  *  *  *  *  *  *  *
  1746.48   |  *  *  *  *  *  *  *  *  *  *  *  *  *  *  *  *  *  *  *  *
  1571.83   |  *  *  *  *  *  *  *  *  *  *  *  *  *  *  *  *  *  *  *  *
  1397.18   |  *  *  *  *  *  *  *  *  *  *  *  *  *  *  *  *  *  *  *  *
  1222.53   |  *  *  *  *  *  *  *  *  *  *  *  *  *  *  *  *  *  *  *  *
  1047.89   |  *  *  *  *  *  *  *  *  *  *  *  *  *  *  *  *  *  *  *  *
   873.24   |  *  *  *  *  *  *  *  *  *  *  *  *  *  *  *  *  *  *  *  *
   698.59   |  *  *  *  *  *  *  *  *  *  *  *  *  *  *  *  *  *  *  *  *
   523.94   |  *  *  *  *  *  *  *  *  *  *  *  *  *  *  *  *  *  *  *  *
   349.30   |  *  *  *  *  *  *  *  *  *  *  *  *  *  *  *  *  *  *  *  *
   174.65   |  *  *  *  *  *  *  *  *  *  *  *  *  *  *  *  *  *  *  *  *
     0.00   |  *  *  *  *  *  *  *  *  *  *  *  *  *  *  *  *  *  *  *  *
  Section number =   7
  Frequency (cm-1) Phonon dispersion
  4191.54   |  *  *  *  *  *  *  *  *  *  *  *  *  *  *  *  *  *  *  *  *
  4016.90   |
  3842.25   |
  3667.60   |  *  *  *  *  *  *  *  *  *  *  *  *  *  *  *  *  *  *  *  *
  3492.95   |  *  *  *  *  *  *  *  *  *  *  *  *  *  *  *  *  *  *  *  *
  3318.31   |
  3143.66   |  *  *  *  *  *  *  *  *  *  *  *  *  *  *  *  *  *  *  *  *
  2969.01   |  *  *  *  *  *  *  *  *  *  *  *  *  *  *  *  *  *  *  *  *
  2794.36   |  *  *  *  *  *  *  *  *  *  *  *  *  *  *  *  *  *  *  *  *
  2619.72   |  *  *  *  *  *  *  *  *  *  *  *  *  *  *  *  *  *  *  *  *
  2445.07   |  *  *  *  *  *  *  *  *  *  *  *  *  *  *  *  *  *  *  *  *
  2270.42   |  *  *  *  *  *  *  *  *  *  *  *  *  *  *  *  *  *  *  *  *
  2095.77   |  *  *  *  *  *  *  *  *  *  *  *  *  *  *  *  *  *  *  *  *
  1921.12   |  *  *  *  *  *  *  *  *  *  *  *  *  *  *  *  *  *  *  *  *
  1746.48   |  *  *  *  *  *  *  *  *  *  *  *  *  *  *  *  *  *  *  *  *
  1571.83   |  *  *  *  *  *  *  *  *  *  *  *  *  *  *  *  *  *  *  *  *
  1397.18   |  *  *  *  *  *  *  *  *  *  *  *  *  *  *  *  *  *  *  *  *
  1222.53   |  *  *  *  *  *  *  *  *  *  *  *  *  *  *  *  *  *  *  *  *
  1047.89   |  *  *  *  *  *  *  *  *  *  *  *  *  *  *  *  *  *  *  *  *
   873.24   |  *  *  *  *  *  *  *  *  *  *  *  *  *  *  *  *  *  *  *  *
   698.59   |  *  *  *  *  *  *  *  *  *  *  *  *  *  *  *  *  *  *  *  *
   523.94   |  *  *  *  *  *  *  *  *  *  *  *  *  *  *  *  *  *  *  *  *
   349.30   |  *  *  *  *  *  *  *  *  *  *  *  *  *  *  *  *  *  *  *  *
   174.65   |  *  *  *  *  *  *  *  *  *  *  *  *  *  *  *  *  *  *  *  *
     0.00   |  *  *  *  *  *  *  *  *  *  *  *  *  *  *  *  *  *  *  *  *

  Phonon dispersion written as 60sp2.disp

  Time to end of properties =     674.0787 seconds

  Timing analysis for GULP :

  Task / Subroutine                                          Time (Seconds)
  Calculation of real space energy and derivatives                0.0708
  Calculation of Brenner energy and derivatives                 546.9963
  Calculation of phonons                                        668.1080
  Global summation overhead                                       0.9541

  Job Finished at 18:02.58 19th April      2021