  Job Started  at 20:08.44 29th July       2020

  Number of CPUs =     1

  Total number of configurations input =      1

*  Input for Configuration =   1                                               *

  Formula = C64

  Number of irreducible atoms/shells =      64

  Total number atoms/shells =      64

  Dimensionality = 3               :  Bulk

  Cartesian lattice vectors (Angstroms) :

        7.669957    0.000000    0.000000
        0.000000    7.669957    0.000000
        0.000000    0.000000    7.669957

  Cell parameters (Angstroms/Degrees):

  a =       7.6700    alpha =  90.0000
  b =       7.6700    beta  =  90.0000
  c =       7.6700    gamma =  90.0000

  Initial cell volume =         451.210074 Angs**3

  Temperature of configuration =   0.00     K

  Pressure of configuration =         0.000 GPa

  Fractional coordinates of asymmetric unit :

   No.  Atomic       x           y          z         Charge      Occupancy
        Label      (Frac)      (Frac)     (Frac)        (e)         (Frac)
      1 C     c    0.476040    0.519880    0.065020     0.00000    1.000000
      2 C     c    0.408230 *  0.739570 *  0.304320 *   0.00000    1.000000
      3 C     c    0.283500 *  0.257800 *  0.903540 *   0.00000    1.000000
      4 C     c    0.121740 *  0.015000 *  0.619820 *   0.00000    1.000000
      5 C     c    0.961630 *  0.858120 *  0.881770 *   0.00000    1.000000
      6 C     c    0.791230 *  0.484810 *  0.577650 *   0.00000    1.000000
      7 C     c    0.611650 *  0.418220 *  0.674250 *   0.00000    1.000000
      8 C     c    0.791740 *  0.717880 *  0.328190 *   0.00000    1.000000
      9 C     c    0.885060 *  0.252990 *  0.323860 *   0.00000    1.000000
     10 C     c    0.677960 *  0.164610 *  0.130500 *   0.00000    1.000000
     11 C     c    0.876740 *  0.039070 *  0.362680 *   0.00000    1.000000
     12 C     c    0.961970 *  0.955970 *  0.523330 *   0.00000    1.000000
     13 C     c    0.510700 *  0.062220 *  0.141510 *   0.00000    1.000000
     14 C     c    0.554090 *  0.985780 *  0.487090 *   0.00000    1.000000
     15 C     c    0.461770 *  0.326030 *  0.993000 *   0.00000    1.000000
     16 C     c    0.946890 *  0.357160 *  0.482980 *   0.00000    1.000000
     17 C     c    0.154070 *  0.421170 *  0.828520 *   0.00000    1.000000
     18 C     c    0.831770 *  0.738730 *  0.814560 *   0.00000    1.000000
     19 C     c    0.920120 *  0.954310 *  0.037080 *   0.00000    1.000000
     20 C     c    0.147610 *  0.916410 *  0.794660 *   0.00000    1.000000
     21 C     c    0.868360 *  0.656000 *  0.654380 *   0.00000    1.000000
     22 C     c    0.879940 *  0.132590 *  0.720880 *   0.00000    1.000000
     23 C     c    0.499460 *  0.600100 *  0.409770 *   0.00000    1.000000
     24 C     c    0.653150 *  0.710260 *  0.882190 *   0.00000    1.000000
     25 C     c    0.638740 *  0.591320 *  0.028020 *   0.00000    1.000000
     26 C     c    0.781760 *  0.980410 *  0.706670 *   0.00000    1.000000
     27 C     c    0.472510 *  0.453970 *  0.572730 *   0.00000    1.000000
     28 C     c    0.358710 *  0.639340 *  0.140240 *   0.00000    1.000000
     29 C     c    0.589570 *  0.956860 *  0.680290 *   0.00000    1.000000
     30 C     c    0.718040 *  0.337390 *  0.232610 *   0.00000    1.000000
     31 C     c    0.001140 *  0.187050 *  0.148080 *   0.00000    1.000000
     32 C     c    0.965430 *  0.404090 *  0.890210 *   0.00000    1.000000
     33 C     c    0.506120 *  0.789580 *  0.785060 *   0.00000    1.000000
     34 C     c    0.837780 *  0.141480 *  0.024540 *   0.00000    1.000000
     35 C     c    0.349610 *  0.176980 *  0.704320 *   0.00000    1.000000
     36 C     c    0.114160 *  0.481020 *  0.449370 *   0.00000    1.000000
     37 C     c    0.177470 *  0.156740 *  0.076340 *   0.00000    1.000000
     38 C     c    0.281670 *  0.397800 *  0.512320 *   0.00000    1.000000
     39 C     c    0.098910 *  0.680840 *  0.419430 *   0.00000    1.000000
     40 C     c    0.930150 *  0.506570 *  0.035090 *   0.00000    1.000000
     41 C     c    0.825710 *  0.254140 *  0.863560 *   0.00000    1.000000
     42 C     c    0.362940 *  0.214000 *  0.165770 *   0.00000    1.000000
     43 C     c    0.399470 *  0.120970 *  0.502590 *   0.00000    1.000000
     44 C     c    0.983380 *  0.715560 *  0.265900 *   0.00000    1.000000
     45 C     c    0.394910 *  0.281560 *  0.358750 *   0.00000    1.000000
     46 C     c    0.560620 *  0.397310 *  0.336180 *   0.00000    1.000000
     47 C     c    0.315270 *  0.767480 *  0.789300 *   0.00000    1.000000
     48 C     c    0.937820 *  0.909940 *  0.211780 *   0.00000    1.000000
     49 C     c    0.766280 *  0.492620 *  0.107940 *   0.00000    1.000000
     50 C     c    0.254780 *  0.806800 *  0.411390 *   0.00000    1.000000
     51 C     c    0.703920 *  0.556230 *  0.406270 *   0.00000    1.000000
     52 C     c    0.957750 *  0.762410 *  0.534000 *   0.00000    1.000000
     53 C     c    0.232480 *  0.605790 *  0.869400 *   0.00000    1.000000
     54 C     c    0.043270 *  0.616500 *  0.115680 *   0.00000    1.000000
     55 C     c    0.619960 *  0.289910 *  0.840110 *   0.00000    1.000000
     56 C     c    0.437720 *  0.008810 *  0.964830 *   0.00000    1.000000
     57 C     c    0.520090 *  0.915040 *  0.281560 *   0.00000    1.000000
     58 C     c    0.206950 *  0.638760 *  0.050740 *   0.00000    1.000000
     59 C     c    0.024090 *  0.212260 *  0.608440 *   0.00000    1.000000
     60 C     c    0.263200 *  0.965980 *  0.492200 *   0.00000    1.000000
     61 C     c    0.714850 *  0.905160 *  0.357290 *   0.00000    1.000000
     62 C     c    0.247900 *  0.994030 *  0.956370 *   0.00000    1.000000
     63 C     c    0.509550 *  0.102510 *  0.802490 *   0.00000    1.000000
     64 C     c    0.189960 *  0.302950 *  0.668360 *   0.00000    1.000000

  Constraints :

  Constraint no.      Unconstrained     Constrained    Coefficient    Offset
                         Variable         Variable
           1              Strain 1        Strain 2       1.00000      0.0000
           2              Strain 1        Strain 3       1.00000      0.0000

*  General input information                                                   *

  Species output for all configurations :

  Species    Type    Atomic    Atomic    Charge       Radii (Angs)     Library
                     Number     Mass       (e)     Cova   Ionic  VDW   Symbol
    C        Core        6      12.01   0.000000   0.770  0.000  1.530

  Lattice summation method               =    Ewald          (3-D)
                                         =    Parry          (2-D)
                                         =    Saunders et al (1-D)
  Accuracy factor for lattice sums       =   12.000

  Analytic derivatives to be used

  Time limit = Infinity

  Maximum range for interatomic potentials =    100000.000000 Angstroms

  Brenner et al 2002 potential to be used with explicit splines for P

*  Output for configuration   1                                                *

  Components of energy :

  Interatomic potentials     =           0.00000000 eV
  Brenner potentials         =        -420.80869104 eV
  Monopole - monopole (real) =           0.00000000 eV
  Monopole - monopole (recip)=           0.00000000 eV
  Monopole - monopole (total)=           0.00000000 eV
  Total lattice energy       =        -420.80869104 eV
  Total lattice energy       =          -40601.6060 kJ/(mole unit cells)

  Number of variables =      189

  Maximum number of calculations  =          2000
  Maximum Hessian update interval =            10
  Maximum step size               =   1.000000000
  Maximum parameter tolerance     =   0.000010000
  Maximum function  tolerance     =   0.000010000
  Maximum gradient  tolerance     =   0.001000000
  Maximum gradient  component     =   0.010000000

  Maximum LM gradient tolerance   =   0.900000000
  Symmetry not applied to optimisation

  BFGS hessian update to be used

  Lower half triangular hessian to be used

  Start of bulk optimisation :

  **** Optimisation achieved ****

  Final energy =    -421.92743893 eV
  Final Gnorm  =       0.00020343

  Components of energy :

  Interatomic potentials     =           0.00000000 eV
  Brenner potentials         =        -421.92743893 eV
  Monopole - monopole (real) =           0.00000000 eV
  Monopole - monopole (recip)=           0.00000000 eV
  Monopole - monopole (total)=           0.00000000 eV
  Total lattice energy       =        -421.92743893 eV
  Total lattice energy       =          -40709.5481 kJ/(mole unit cells)

  Final fractional coordinates of atoms :

   No.  Atomic        x           y          z          Radius
        Label       (Frac)      (Frac)     (Frac)       (Angs)
     1  C     c     0.476040    0.519880    0.065020    0.000000
     2  C     c     0.409137    0.737366    0.308535    0.000000
     3  C     c     0.290678    0.261887    0.910452    0.000000
     4  C     c     0.103987    0.008290    0.616849    0.000000
     5  C     c     0.957030    0.855380    0.882648    0.000000
     6  C     c     0.795421    0.476474    0.583215    0.000000
     7  C     c     0.615924    0.413072    0.679963    0.000000
     8  C     c     0.788023    0.713136    0.338142    0.000000
     9  C     c     0.884722    0.243587    0.327443    0.000000
    10  C     c     0.688382    0.158810    0.143072    0.000000
    11  C     c     0.869972    0.035798    0.362106    0.000000
    12  C     c     0.950315    0.931607    0.522120    0.000000
    13  C     c     0.516981    0.057849    0.151698    0.000000
    14  C     c     0.550738    0.978591    0.497993    0.000000
    15  C     c     0.469143    0.329329    0.001230    0.000000
    16  C     c     0.950427    0.349138    0.488951    0.000000
    17  C     c     0.159600    0.419069    0.831856    0.000000
    18  C     c     0.830170    0.734903    0.814860    0.000000
    19  C     c     0.911585    0.946873    0.038230    0.000000
    20  C     c     0.143540    0.915862    0.797545    0.000000
    21  C     c     0.870077    0.647979    0.657273    0.000000
    22  C     c     0.890623    0.123131    0.729037    0.000000
    23  C     c     0.498033    0.597209    0.413878    0.000000
    24  C     c     0.651274    0.704681    0.884169    0.000000
    25  C     c     0.640718    0.586428    0.027423    0.000000
    26  C     c     0.790022    0.974436    0.719996    0.000000
    27  C     c     0.473672    0.456478    0.577155    0.000000
    28  C     c     0.359522    0.638612    0.140825    0.000000
    29  C     c     0.590906    0.953218    0.693059    0.000000
    30  C     c     0.716029    0.338941    0.234203    0.000000
    31  C     c     0.010190    0.198129    0.156014    0.000000
    32  C     c     0.970995    0.394178    0.896401    0.000000
    33  C     c     0.503474    0.788289    0.787671    0.000000
    34  C     c     0.850677    0.135174    0.036312    0.000000
    35  C     c     0.354281    0.176260    0.712655    0.000000
    36  C     c     0.114317    0.477381    0.449130    0.000000
    37  C     c     0.185206    0.167427    0.082049    0.000000
    38  C     c     0.281649    0.397607    0.517784    0.000000
    39  C     c     0.101131    0.672427    0.421692    0.000000
    40  C     c     0.933106    0.497643    0.038951    0.000000
    41  C     c     0.834999    0.243648    0.873273    0.000000
    42  C     c     0.376249    0.214548    0.169027    0.000000
    43  C     c     0.393832    0.114763    0.509635    0.000000
    44  C     c     0.978638    0.710543    0.268089    0.000000
    45  C     c     0.396016    0.276713    0.370125    0.000000
    46  C     c     0.558745    0.398095    0.339563    0.000000
    47  C     c     0.306825    0.764503    0.787879    0.000000
    48  C     c     0.924632    0.896865    0.213451    0.000000
    49  C     c     0.766977    0.484300    0.107782    0.000000
    50  C     c     0.253489    0.803368    0.415736    0.000000
    51  C     c     0.704717    0.552005    0.411307    0.000000
    52  C     c     0.955470    0.748296    0.534472    0.000000
    53  C     c     0.229923    0.605324    0.865937    0.000000
    54  C     c     0.040702    0.616231    0.115042    0.000000
    55  C     c     0.625815    0.285467    0.848072    0.000000
    56  C     c     0.438036    0.014295    0.970635    0.000000
    57  C     c     0.519733    0.911496    0.288731    0.000000
    58  C     c     0.204704    0.641814    0.048675    0.000000
    59  C     c     0.036261    0.208975    0.615288    0.000000
    60  C     c     0.256185    0.960710    0.494472    0.000000
    61  C     c     0.713420    0.893902    0.372569    0.000000
    62  C     c     0.242068    0.009837    0.955061    0.000000
    63  C     c     0.516214    0.100895    0.810342    0.000000
    64  C     c     0.199463    0.303338    0.671238    0.000000

  Final internal derivatives :

   No.  Atomic          a             b             c           Radius
        Label          (eV)          (eV)          (eV)        (eV/Angs)
      1 C     c       0.000000      0.000000      0.000000      0.000000
      2 C     c       0.005549      0.001425      0.000089      0.000000
      3 C     c       0.002591      0.001498      0.000249      0.000000
      4 C     c       0.002858      0.003049      0.000506      0.000000
      5 C     c      -0.000071     -0.005230      0.002518      0.000000
      6 C     c       0.003029      0.002477     -0.002341      0.000000
      7 C     c       0.001606     -0.000476     -0.003205      0.000000
      8 C     c      -0.002199      0.000935     -0.007325      0.000000
      9 C     c      -0.001177     -0.002109     -0.001135      0.000000
     10 C     c       0.002127      0.001511     -0.000979      0.000000
     11 C     c       0.004002     -0.001846     -0.004244      0.000000
     12 C     c       0.005822     -0.000889      0.000396      0.000000
     13 C     c       0.001744     -0.001125     -0.000531      0.000000
     14 C     c       0.000421      0.000409      0.002166      0.000000
     15 C     c       0.000536      0.005511     -0.000911      0.000000
     16 C     c       0.000421      0.000128      0.000947      0.000000
     17 C     c       0.001134     -0.002221      0.002620      0.000000
     18 C     c       0.000219     -0.006380     -0.001657      0.000000
     19 C     c       0.002381      0.000922     -0.000849      0.000000
     20 C     c      -0.000488      0.000100      0.000861      0.000000
     21 C     c      -0.001961      0.000255     -0.003020      0.000000
     22 C     c       0.000237      0.001890     -0.002775      0.000000
     23 C     c       0.001620     -0.002401     -0.001348      0.000000
     24 C     c       0.001840     -0.002671     -0.001362      0.000000
     25 C     c       0.001034      0.000098      0.002269      0.000000
     26 C     c       0.002722      0.003106     -0.002514      0.000000
     27 C     c       0.000808      0.003643     -0.006569      0.000000
     28 C     c      -0.000200      0.000785     -0.000636      0.000000
     29 C     c      -0.003092     -0.000707     -0.000476      0.000000
     30 C     c       0.000771      0.001443     -0.001242      0.000000
     31 C     c      -0.000636      0.003172     -0.003556      0.000000
     32 C     c      -0.005424      0.002030     -0.002196      0.000000
     33 C     c      -0.001417     -0.002525     -0.002742      0.000000
     34 C     c       0.003015      0.001058     -0.002152      0.000000
     35 C     c      -0.000269     -0.001676     -0.005399      0.000000
     36 C     c       0.001176      0.005806      0.003111      0.000000
     37 C     c      -0.001613      0.001838     -0.002155      0.000000
     38 C     c       0.000032     -0.003588     -0.000610      0.000000
     39 C     c      -0.005530      0.002485     -0.001783      0.000000
     40 C     c      -0.003027      0.000264     -0.001637      0.000000
     41 C     c      -0.003194      0.000345     -0.003341      0.000000
     42 C     c      -0.000791     -0.002667     -0.004961      0.000000
     43 C     c       0.005903     -0.006898      0.000060      0.000000
     44 C     c      -0.001058     -0.001775     -0.000612      0.000000
     45 C     c       0.001438     -0.000638     -0.003263      0.000000
     46 C     c      -0.002851     -0.001768      0.003775      0.000000
     47 C     c      -0.005862     -0.004648      0.000459      0.000000
     48 C     c       0.005862      0.001531      0.000024      0.000000
     49 C     c      -0.000118     -0.001455     -0.000272      0.000000
     50 C     c       0.002264      0.003637      0.001060      0.000000
     51 C     c      -0.002402      0.001884     -0.005911      0.000000
     52 C     c       0.000971      0.001175      0.004040      0.000000
     53 C     c       0.000158      0.001915      0.000664      0.000000
     54 C     c      -0.003701     -0.001581     -0.000187      0.000000
     55 C     c      -0.005910      0.001197      0.000452      0.000000
     56 C     c       0.003076     -0.000966      0.000006      0.000000
     57 C     c      -0.003748      0.003623      0.002949      0.000000
     58 C     c      -0.002769     -0.000854      0.001072      0.000000
     59 C     c       0.001195     -0.006622     -0.002731      0.000000
     60 C     c       0.003558      0.004111      0.002565      0.000000
     61 C     c      -0.000680     -0.001765      0.003335      0.000000
     62 C     c       0.002740     -0.004750      0.002814      0.000000
     63 C     c       0.000093     -0.002838     -0.001374      0.000000
     64 C     c      -0.007545     -0.001273     -0.004883      0.000000
  Maximum abs         0.007545      0.006898      0.007325      0.000000

  Time to end of optimisation =       3.0575 seconds

  Timing analysis for GULP :

  Task / Subroutine                                          Time (Seconds)
  Calculation of Brenner energy and derivatives                   2.9701
  Calculation of matrix inversion                                 0.0001

  CIF file written as opti_1.0075.cif

  Job Finished at 20:08.47 29th July       2020