  Job Started  at 16:20.11 12th August     2020

  Number of CPUs =     1

  Total number of configurations input =      1

*  Input for Configuration =   1                                               *

  Formula = C64

  Number of irreducible atoms/shells =      64

  Total number atoms/shells =      64

  Dimensionality = 3               :  Bulk

  Cartesian lattice vectors (Angstroms) :

        7.551803    0.000000    0.000000
        0.000000    7.551803    0.000000
        0.000000    0.000000    7.551803

  Cell parameters (Angstroms/Degrees):

  a =       7.5518    alpha =  90.0000
  b =       7.5518    beta  =  90.0000
  c =       7.5518    gamma =  90.0000

  Initial cell volume =         430.677275 Angs**3

  Temperature of configuration =   0.00     K

  Pressure of configuration =         0.000 GPa

  Fractional coordinates of asymmetric unit :

   No.  Atomic       x           y          z         Charge      Occupancy
        Label      (Frac)      (Frac)     (Frac)        (e)         (Frac)
      1 C     c    0.082860    0.546420    0.420470     0.00000    1.000000
      2 C     c    0.300470 *  0.098480 *  0.158050 *   0.00000    1.000000
      3 C     c    0.135430 *  0.397320 *  0.321400 *   0.00000    1.000000
      4 C     c    0.905490 *  0.925920 *  0.500530 *   0.00000    1.000000
      5 C     c    0.496470 *  0.888330 *  0.033250 *   0.00000    1.000000
      6 C     c    0.816780 *  0.441270 *  0.290230 *   0.00000    1.000000
      7 C     c    0.945770 *  0.607820 *  0.761780 *   0.00000    1.000000
      8 C     c    0.840320 *  0.519590 *  0.629820 *   0.00000    1.000000
      9 C     c    0.152890 *  0.348160 *  0.688790 *   0.00000    1.000000
     10 C     c    0.417360 *  0.733360 *  0.168120 *   0.00000    1.000000
     11 C     c    0.912950 *  0.222370 *  0.789680 *   0.00000    1.000000
     12 C     c    0.594660 *  0.873970 *  0.593910 *   0.00000    1.000000
     13 C     c    0.450710 *  0.212820 *  0.666970 *   0.00000    1.000000
     14 C     c    0.222920 *  0.959920 *  0.855440 *   0.00000    1.000000
     15 C     c    0.544790 *  0.575680 *  0.447490 *   0.00000    1.000000
     16 C     c    0.011880 *  0.923390 *  0.168010 *   0.00000    1.000000
     17 C     c    0.170450 *  0.793090 *  0.921890 *   0.00000    1.000000
     18 C     c    0.324040 *  0.692350 *  0.651930 *   0.00000    1.000000
     19 C     c    0.762670 *  0.347470 *  0.713160 *   0.00000    1.000000
     20 C     c    0.064920 *  0.226020 *  0.316700 *   0.00000    1.000000
     21 C     c    0.939020 *  0.137230 *  0.452960 *   0.00000    1.000000
     22 C     c    0.882990 *  0.573160 *  0.439880 *   0.00000    1.000000
     23 C     c    0.483380 *  0.799280 *  0.721410 *   0.00000    1.000000
     24 C     c    0.800220 *  0.235140 *  0.302270 *   0.00000    1.000000
     25 C     c    0.720270 *  0.151940 *  0.111960 *   0.00000    1.000000
     26 C     c    0.529470 *  0.570940 *  0.123160 *   0.00000    1.000000
     27 C     c    0.623950 *  0.264260 *  0.582370 *   0.00000    1.000000
     28 C     c    0.661500 *  0.958000 *  0.159510 *   0.00000    1.000000
     29 C     c    0.510700 *  0.875200 *  0.296820 *   0.00000    1.000000
     30 C     c    0.368170 *  0.034740 *  0.972170 *   0.00000    1.000000
     31 C     c    0.838010 *  0.084970 *  0.940300 *   0.00000    1.000000
     32 C     c    0.887020 *  0.741300 *  0.878490 *   0.00000    1.000000
     33 C     c    0.329920 *  0.369220 *  0.625000 *   0.00000    1.000000
     34 C     c    0.234910 *  0.665930 *  0.237200 *   0.00000    1.000000
     35 C     c    0.097820 *  0.482080 *  0.828230 *   0.00000    1.000000
     36 C     c    0.357300 *  0.059430 *  0.561620 *   0.00000    1.000000
     37 C     c    0.205560 *  0.709380 *  0.458790 *   0.00000    1.000000
     38 C     c    0.577830 *  0.283650 *  0.000200 *   0.00000    1.000000
     39 C     c    0.096250 *  0.111340 *  0.154850 *   0.00000    1.000000
     40 C     c    0.783300 *  0.916310 *  0.845700 *   0.00000    1.000000
     41 C     c    0.406360 *  0.526900 *  0.561540 *   0.00000    1.000000
     42 C     c    0.094690 *  0.865200 *  0.548260 *   0.00000    1.000000
     43 C     c    0.072230 *  0.412820 *  0.017680 *   0.00000    1.000000
     44 C     c    0.238240 *  0.455410 *  0.151960 *   0.00000    1.000000
     45 C     c    0.203740 *  0.654420 *  0.807420 *   0.00000    1.000000
     46 C     c    0.918830 *  0.504530 *  0.126220 *   0.00000    1.000000
     47 C     c    0.828050 *  0.833420 *  0.193820 *   0.00000    1.000000
     48 C     c    0.017560 *  0.212950 *  0.992570 *   0.00000    1.000000
     49 C     c    0.812710 *  0.769570 *  0.389370 *   0.00000    1.000000
     50 C     c    0.835940 *  0.673740 *  0.062610 *   0.00000    1.000000
     51 C     c    0.185060 *  0.009430 *  0.659170 *   0.00000    1.000000
     52 C     c    0.457630 *  0.216810 *  0.274090 *   0.00000    1.000000
     53 C     c    0.431410 *  0.378370 *  0.134190 *   0.00000    1.000000
     54 C     c    0.387750 *  0.028060 *  0.356610 *   0.00000    1.000000
     55 C     c    0.620120 *  0.243470 *  0.401380 *   0.00000    1.000000
     56 C     c    0.467290 *  0.174440 *  0.869580 *   0.00000    1.000000
     57 C     c    0.671060 *  0.425450 *  0.885090 *   0.00000    1.000000
     58 C     c    0.760010 *  0.942560 *  0.648250 *   0.00000    1.000000
     59 C     c    0.130720 *  0.786950 *  0.105540 *   0.00000    1.000000
     60 C     c    0.614630 *  0.488110 *  0.292770 *   0.00000    1.000000
     61 C     c    0.609350 *  0.770250 *  0.432430 *   0.00000    1.000000
     62 C     c    0.047380 *  0.170810 *  0.640760 *   0.00000    1.000000
     63 C     c    0.654620 *  0.612400 *  0.969500 *   0.00000    1.000000
     64 C     c    0.597000 *  0.795710 *  0.888070 *   0.00000    1.000000

  Constraints :

  Constraint no.      Unconstrained     Constrained    Coefficient    Offset
                         Variable         Variable
           1              Strain 1        Strain 2       1.00000      0.0000
           2              Strain 1        Strain 3       1.00000      0.0000

*  General input information                                                   *

  Species output for all configurations :

  Species    Type    Atomic    Atomic    Charge       Radii (Angs)     Library
                     Number     Mass       (e)     Cova   Ionic  VDW   Symbol
    C        Core        6      12.01   0.000000   0.770  0.000  1.530

  Lattice summation method               =    Ewald          (3-D)
                                         =    Parry          (2-D)
                                         =    Saunders et al (1-D)
  Accuracy factor for lattice sums       =   12.000

  Analytic derivatives to be used

  Time limit = Infinity

  Maximum range for interatomic potentials =    100000.000000 Angstroms

  Brenner et al 2002 potential to be used with explicit splines for P

*  Output for configuration   1                                                *

  Components of energy :

  Interatomic potentials     =           0.00000000 eV
  Brenner potentials         =        -425.08860005 eV
  Monopole - monopole (real) =           0.00000000 eV
  Monopole - monopole (recip)=           0.00000000 eV
  Monopole - monopole (total)=           0.00000000 eV
  Total lattice energy       =        -425.08860005 eV
  Total lattice energy       =          -41014.5518 kJ/(mole unit cells)

  Number of variables =      189

  Maximum number of calculations  =          2000
  Maximum Hessian update interval =            10
  Maximum step size               =   1.000000000
  Maximum parameter tolerance     =   0.000010000
  Maximum function  tolerance     =   0.000010000
  Maximum gradient  tolerance     =   0.001000000
  Maximum gradient  component     =   0.010000000

  Maximum LM gradient tolerance   =   0.900000000
  Symmetry not applied to optimisation

  BFGS hessian update to be used

  Lower half triangular hessian to be used

  Start of bulk optimisation :

  **** Optimisation achieved ****

  Final energy =    -425.17117094 eV
  Final Gnorm  =       0.00019365

  Components of energy :

  Interatomic potentials     =           0.00000000 eV
  Brenner potentials         =        -425.17117094 eV
  Monopole - monopole (real) =           0.00000000 eV
  Monopole - monopole (recip)=           0.00000000 eV
  Monopole - monopole (total)=           0.00000000 eV
  Total lattice energy       =        -425.17117094 eV
  Total lattice energy       =          -41022.5187 kJ/(mole unit cells)

  Final fractional coordinates of atoms :

   No.  Atomic        x           y          z          Radius
        Label       (Frac)      (Frac)     (Frac)       (Angs)
     1  C     c     0.082860    0.546420    0.420470    0.000000
     2  C     c     0.302569    0.097946    0.160114    0.000000
     3  C     c     0.134149    0.397679    0.321219    0.000000
     4  C     c     0.907273    0.926028    0.502712    0.000000
     5  C     c     0.498978    0.887666    0.035675    0.000000
     6  C     c     0.816602    0.440854    0.292957    0.000000
     7  C     c     0.946572    0.606355    0.764490    0.000000
     8  C     c     0.842372    0.518315    0.632174    0.000000
     9  C     c     0.155237    0.348031    0.691936    0.000000
    10  C     c     0.419433    0.733295    0.170140    0.000000
    11  C     c     0.914287    0.221126    0.791826    0.000000
    12  C     c     0.597510    0.870301    0.596438    0.000000
    13  C     c     0.452069    0.213174    0.668807    0.000000
    14  C     c     0.226448    0.959026    0.856625    0.000000
    15  C     c     0.545097    0.575868    0.448724    0.000000
    16  C     c     0.014410    0.922164    0.168921    0.000000
    17  C     c     0.173167    0.793020    0.922849    0.000000
    18  C     c     0.323662    0.691895    0.651775    0.000000
    19  C     c     0.763963    0.346710    0.715403    0.000000
    20  C     c     0.064740    0.226467    0.316566    0.000000
    21  C     c     0.940938    0.137675    0.454182    0.000000
    22  C     c     0.883885    0.572534    0.442350    0.000000
    23  C     c     0.485383    0.796369    0.723100    0.000000
    24  C     c     0.801443    0.234929    0.305671    0.000000
    25  C     c     0.722295    0.150905    0.114127    0.000000
    26  C     c     0.531030    0.571110    0.125479    0.000000
    27  C     c     0.624911    0.264016    0.584217    0.000000
    28  C     c     0.664129    0.956952    0.161193    0.000000
    29  C     c     0.513003    0.875147    0.297801    0.000000
    30  C     c     0.370710    0.033949    0.974160    0.000000
    31  C     c     0.839721    0.083613    0.941725    0.000000
    32  C     c     0.886327    0.738710    0.880796    0.000000
    33  C     c     0.331758    0.369586    0.628121    0.000000
    34  C     c     0.237045    0.665943    0.238853    0.000000
    35  C     c     0.099039    0.481913    0.830635    0.000000
    36  C     c     0.358753    0.060479    0.562552    0.000000
    37  C     c     0.206258    0.708504    0.459160    0.000000
    38  C     c     0.579113    0.283260    0.002081    0.000000
    39  C     c     0.098010    0.110754    0.156214    0.000000
    40  C     c     0.784564    0.914421    0.847785    0.000000
    41  C     c     0.407462    0.526627    0.563188    0.000000
    42  C     c     0.096860    0.865624    0.549166    0.000000
    43  C     c     0.072883    0.412451    0.020171    0.000000
    44  C     c     0.240182    0.456376    0.154510    0.000000
    45  C     c     0.202943    0.655070    0.807466    0.000000
    46  C     c     0.919289    0.503552    0.129186    0.000000
    47  C     c     0.830595    0.832415    0.195557    0.000000
    48  C     c     0.017739    0.212262    0.993910    0.000000
    49  C     c     0.814040    0.769302    0.391258    0.000000
    50  C     c     0.837061    0.672368    0.065206    0.000000
    51  C     c     0.187304    0.009379    0.660359    0.000000
    52  C     c     0.458996    0.216435    0.274717    0.000000
    53  C     c     0.433587    0.378951    0.136930    0.000000
    54  C     c     0.390327    0.028064    0.357244    0.000000
    55  C     c     0.621179    0.242951    0.403752    0.000000
    56  C     c     0.469014    0.173998    0.871727    0.000000
    57  C     c     0.672424    0.424825    0.887410    0.000000
    58  C     c     0.762053    0.938776    0.650535    0.000000
    59  C     c     0.133775    0.786923    0.106265    0.000000
    60  C     c     0.615376    0.488752    0.294660    0.000000
    61  C     c     0.610528    0.770023    0.433706    0.000000
    62  C     c     0.049301    0.171093    0.643236    0.000000
    63  C     c     0.655943    0.611506    0.972150    0.000000
    64  C     c     0.598542    0.794522    0.890337    0.000000

  Final internal derivatives :

   No.  Atomic          a             b             c           Radius
        Label          (eV)          (eV)          (eV)        (eV/Angs)
      1 C     c       0.000000      0.000000      0.000000      0.000000
      2 C     c       0.005185      0.000107     -0.002828      0.000000
      3 C     c       0.002433      0.000720      0.002997      0.000000
      4 C     c       0.000726      0.002288     -0.001028      0.000000
      5 C     c       0.006056      0.002597     -0.007345      0.000000
      6 C     c      -0.003681      0.000564      0.000766      0.000000
      7 C     c      -0.000464     -0.002929     -0.000430      0.000000
      8 C     c      -0.000231      0.000231      0.000168      0.000000
      9 C     c      -0.001107     -0.003240      0.001299      0.000000
     10 C     c       0.000555     -0.000571     -0.000034      0.000000
     11 C     c       0.000822     -0.000425      0.003043      0.000000
     12 C     c      -0.001733     -0.000226     -0.000958      0.000000
     13 C     c       0.002482     -0.003148     -0.000308      0.000000
     14 C     c       0.000473     -0.001869     -0.000047      0.000000
     15 C     c       0.001966      0.003678      0.000415      0.000000
     16 C     c       0.002826      0.003055     -0.002321      0.000000
     17 C     c       0.001740     -0.000536     -0.000358      0.000000
     18 C     c      -0.000652      0.000007     -0.003300      0.000000
     19 C     c      -0.000871     -0.003372     -0.001513      0.000000
     20 C     c       0.004116     -0.000043     -0.000457      0.000000
     21 C     c      -0.001714     -0.004329      0.007313      0.000000
     22 C     c       0.001075      0.002983      0.000247      0.000000
     23 C     c      -0.002619      0.003660     -0.000266      0.000000
     24 C     c      -0.002171     -0.000850     -0.004667      0.000000
     25 C     c       0.001926     -0.003144     -0.000823      0.000000
     26 C     c       0.002032      0.003546     -0.002034      0.000000
     27 C     c       0.001018     -0.001665     -0.002557      0.000000
     28 C     c       0.002349     -0.003716      0.006194      0.000000
     29 C     c      -0.001742     -0.002386      0.002384      0.000000
     30 C     c       0.001216     -0.001722     -0.003648      0.000000
     31 C     c       0.002969     -0.005080      0.001476      0.000000
     32 C     c      -0.000204     -0.001431     -0.002087      0.000000
     33 C     c      -0.000019     -0.003542      0.000947      0.000000
     34 C     c       0.001088     -0.004118     -0.006346      0.000000
     35 C     c       0.000497     -0.000445     -0.000374      0.000000
     36 C     c       0.006334      0.000797     -0.000974      0.000000
     37 C     c       0.001043      0.002424      0.006993      0.000000
     38 C     c       0.004607     -0.004650      0.001051      0.000000
     39 C     c       0.001483     -0.001103     -0.003973      0.000000
     40 C     c      -0.003368      0.000386     -0.000884      0.000000
     41 C     c      -0.000024     -0.001802     -0.002192      0.000000
     42 C     c      -0.000848      0.000046     -0.005646      0.000000
     43 C     c      -0.001193      0.001390      0.000060      0.000000
     44 C     c      -0.000872      0.000363      0.002348      0.000000
     45 C     c       0.002323      0.000901     -0.001136      0.000000
     46 C     c       0.001205     -0.001063      0.002735      0.000000
     47 C     c       0.000497      0.002829     -0.003737      0.000000
     48 C     c       0.000685     -0.001964      0.002287      0.000000
     49 C     c      -0.000097      0.002143     -0.000779      0.000000
     50 C     c       0.001600     -0.001539     -0.000876      0.000000
     51 C     c       0.004096     -0.003335      0.000264      0.000000
     52 C     c       0.001014     -0.003449      0.003085      0.000000
     53 C     c       0.001528     -0.003493      0.002797      0.000000
     54 C     c       0.003103      0.002038     -0.005365      0.000000
     55 C     c       0.002919      0.002706     -0.003561      0.000000
     56 C     c       0.003895     -0.005484     -0.003610      0.000000
     57 C     c       0.003356     -0.000992     -0.003020      0.000000
     58 C     c      -0.001570     -0.002647     -0.001824      0.000000
     59 C     c       0.002606      0.001539     -0.000867      0.000000
     60 C     c      -0.001691      0.002641      0.000783      0.000000
     61 C     c      -0.003229      0.001472     -0.000678      0.000000
     62 C     c      -0.002461      0.000416     -0.002021      0.000000
     63 C     c       0.000527     -0.003209     -0.007053      0.000000
     64 C     c      -0.001169     -0.002684     -0.003229      0.000000
  Maximum abs         0.006334      0.005484      0.007345      0.000000

  Time to end of optimisation =       0.7477 seconds

  Timing analysis for GULP :

  Task / Subroutine                                          Time (Seconds)
  Calculation of Brenner energy and derivatives                   0.7187

  CIF file written as opti_1.0050.cif

  Job Finished at 16:20.11 12th August     2020