  Job Started  at 13:04.17 31st July       2020

  Number of CPUs =     1

  Total number of configurations input =      1

*  Input for Configuration =   1                                               *

  Formula = C64

  Number of irreducible atoms/shells =      64

  Total number atoms/shells =      64

  Dimensionality = 3               :  Bulk

  Cartesian lattice vectors (Angstroms) :

        7.631702    0.000000    0.000000
        0.000000    7.631702    0.000000
        0.000000    0.000000    7.631702

  Cell parameters (Angstroms/Degrees):

  a =       7.6317    alpha =  90.0000
  b =       7.6317    beta  =  90.0000
  c =       7.6317    gamma =  90.0000

  Initial cell volume =         444.492269 Angs**3

  Temperature of configuration =   0.00     K

  Pressure of configuration =         0.000 GPa

  Fractional coordinates of asymmetric unit :

   No.  Atomic       x           y          z         Charge      Occupancy
        Label      (Frac)      (Frac)     (Frac)        (e)         (Frac)
      1 C     c    0.476040    0.519880    0.065020     0.00000    1.000000
      2 C     c    0.408230 *  0.739570 *  0.304320 *   0.00000    1.000000
      3 C     c    0.283500 *  0.257800 *  0.903540 *   0.00000    1.000000
      4 C     c    0.121740 *  0.015000 *  0.619820 *   0.00000    1.000000
      5 C     c    0.961630 *  0.858120 *  0.881770 *   0.00000    1.000000
      6 C     c    0.791230 *  0.484810 *  0.577650 *   0.00000    1.000000
      7 C     c    0.611650 *  0.418220 *  0.674250 *   0.00000    1.000000
      8 C     c    0.791740 *  0.717880 *  0.328190 *   0.00000    1.000000
      9 C     c    0.885060 *  0.252990 *  0.323860 *   0.00000    1.000000
     10 C     c    0.677960 *  0.164610 *  0.130500 *   0.00000    1.000000
     11 C     c    0.876740 *  0.039070 *  0.362680 *   0.00000    1.000000
     12 C     c    0.961970 *  0.955970 *  0.523330 *   0.00000    1.000000
     13 C     c    0.510700 *  0.062220 *  0.141510 *   0.00000    1.000000
     14 C     c    0.554090 *  0.985780 *  0.487090 *   0.00000    1.000000
     15 C     c    0.461770 *  0.326030 *  0.993000 *   0.00000    1.000000
     16 C     c    0.946890 *  0.357160 *  0.482980 *   0.00000    1.000000
     17 C     c    0.154070 *  0.421170 *  0.828520 *   0.00000    1.000000
     18 C     c    0.831770 *  0.738730 *  0.814560 *   0.00000    1.000000
     19 C     c    0.920120 *  0.954310 *  0.037080 *   0.00000    1.000000
     20 C     c    0.147610 *  0.916410 *  0.794660 *   0.00000    1.000000
     21 C     c    0.868360 *  0.656000 *  0.654380 *   0.00000    1.000000
     22 C     c    0.879940 *  0.132590 *  0.720880 *   0.00000    1.000000
     23 C     c    0.499460 *  0.600100 *  0.409770 *   0.00000    1.000000
     24 C     c    0.653150 *  0.710260 *  0.882190 *   0.00000    1.000000
     25 C     c    0.638740 *  0.591320 *  0.028020 *   0.00000    1.000000
     26 C     c    0.781760 *  0.980410 *  0.706670 *   0.00000    1.000000
     27 C     c    0.472510 *  0.453970 *  0.572730 *   0.00000    1.000000
     28 C     c    0.358710 *  0.639340 *  0.140240 *   0.00000    1.000000
     29 C     c    0.589570 *  0.956860 *  0.680290 *   0.00000    1.000000
     30 C     c    0.718040 *  0.337390 *  0.232610 *   0.00000    1.000000
     31 C     c    0.001140 *  0.187050 *  0.148080 *   0.00000    1.000000
     32 C     c    0.965430 *  0.404090 *  0.890210 *   0.00000    1.000000
     33 C     c    0.506120 *  0.789580 *  0.785060 *   0.00000    1.000000
     34 C     c    0.837780 *  0.141480 *  0.024540 *   0.00000    1.000000
     35 C     c    0.349610 *  0.176980 *  0.704320 *   0.00000    1.000000
     36 C     c    0.114160 *  0.481020 *  0.449370 *   0.00000    1.000000
     37 C     c    0.177470 *  0.156740 *  0.076340 *   0.00000    1.000000
     38 C     c    0.281670 *  0.397800 *  0.512320 *   0.00000    1.000000
     39 C     c    0.098910 *  0.680840 *  0.419430 *   0.00000    1.000000
     40 C     c    0.930150 *  0.506570 *  0.035090 *   0.00000    1.000000
     41 C     c    0.825710 *  0.254140 *  0.863560 *   0.00000    1.000000
     42 C     c    0.362940 *  0.214000 *  0.165770 *   0.00000    1.000000
     43 C     c    0.399470 *  0.120970 *  0.502590 *   0.00000    1.000000
     44 C     c    0.983380 *  0.715560 *  0.265900 *   0.00000    1.000000
     45 C     c    0.394910 *  0.281560 *  0.358750 *   0.00000    1.000000
     46 C     c    0.560620 *  0.397310 *  0.336180 *   0.00000    1.000000
     47 C     c    0.315270 *  0.767480 *  0.789300 *   0.00000    1.000000
     48 C     c    0.937820 *  0.909940 *  0.211780 *   0.00000    1.000000
     49 C     c    0.766280 *  0.492620 *  0.107940 *   0.00000    1.000000
     50 C     c    0.254780 *  0.806800 *  0.411390 *   0.00000    1.000000
     51 C     c    0.703920 *  0.556230 *  0.406270 *   0.00000    1.000000
     52 C     c    0.957750 *  0.762410 *  0.534000 *   0.00000    1.000000
     53 C     c    0.232480 *  0.605790 *  0.869400 *   0.00000    1.000000
     54 C     c    0.043270 *  0.616500 *  0.115680 *   0.00000    1.000000
     55 C     c    0.619960 *  0.289910 *  0.840110 *   0.00000    1.000000
     56 C     c    0.437720 *  0.008810 *  0.964830 *   0.00000    1.000000
     57 C     c    0.520090 *  0.915040 *  0.281560 *   0.00000    1.000000
     58 C     c    0.206950 *  0.638760 *  0.050740 *   0.00000    1.000000
     59 C     c    0.024090 *  0.212260 *  0.608440 *   0.00000    1.000000
     60 C     c    0.263200 *  0.965980 *  0.492200 *   0.00000    1.000000
     61 C     c    0.714850 *  0.905160 *  0.357290 *   0.00000    1.000000
     62 C     c    0.247900 *  0.994030 *  0.956370 *   0.00000    1.000000
     63 C     c    0.509550 *  0.102510 *  0.802490 *   0.00000    1.000000
     64 C     c    0.189960 *  0.302950 *  0.668360 *   0.00000    1.000000

  Constraints :

  Constraint no.      Unconstrained     Constrained    Coefficient    Offset
                         Variable         Variable
           1              Strain 1        Strain 2       1.00000      0.0000
           2              Strain 1        Strain 3       1.00000      0.0000

*  General input information                                                   *

  Species output for all configurations :

  Species    Type    Atomic    Atomic    Charge       Radii (Angs)     Library
                     Number     Mass       (e)     Cova   Ionic  VDW   Symbol
    C        Core        6      12.01   0.000000   0.770  0.000  1.530

  Lattice summation method               =    Ewald          (3-D)
                                         =    Parry          (2-D)
                                         =    Saunders et al (1-D)
  Accuracy factor for lattice sums       =   12.000

  Analytic derivatives to be used

  Time limit = Infinity

  Maximum range for interatomic potentials =    100000.000000 Angstroms

  Brenner et al 2002 potential to be used with explicit splines for P

*  Output for configuration   1                                                *

  Components of energy :

  Interatomic potentials     =           0.00000000 eV
  Brenner potentials         =        -420.90310295 eV
  Monopole - monopole (real) =           0.00000000 eV
  Monopole - monopole (recip)=           0.00000000 eV
  Monopole - monopole (total)=           0.00000000 eV
  Total lattice energy       =        -420.90310295 eV
  Total lattice energy       =          -40610.7153 kJ/(mole unit cells)

  Number of variables =      189

  Maximum number of calculations  =          2000
  Maximum Hessian update interval =            10
  Maximum step size               =   1.000000000
  Maximum parameter tolerance     =   0.000010000
  Maximum function  tolerance     =   0.000010000
  Maximum gradient  tolerance     =   0.001000000
  Maximum gradient  component     =   0.010000000

  Maximum LM gradient tolerance   =   0.900000000
  Symmetry not applied to optimisation

  BFGS hessian update to be used

  Lower half triangular hessian to be used

  Start of bulk optimisation :

  **** Optimisation achieved ****

  Final energy =    -422.04052912 eV
  Final Gnorm  =       0.00016400

  Components of energy :

  Interatomic potentials     =           0.00000000 eV
  Brenner potentials         =        -422.04052912 eV
  Monopole - monopole (real) =           0.00000000 eV
  Monopole - monopole (recip)=           0.00000000 eV
  Monopole - monopole (total)=           0.00000000 eV
  Total lattice energy       =        -422.04052912 eV
  Total lattice energy       =          -40720.4596 kJ/(mole unit cells)

  Final fractional coordinates of atoms :

   No.  Atomic        x           y          z          Radius
        Label       (Frac)      (Frac)     (Frac)       (Angs)
     1  C     c     0.476040    0.519880    0.065020    0.000000
     2  C     c     0.410058    0.738246    0.307047    0.000000
     3  C     c     0.290713    0.260948    0.910705    0.000000
     4  C     c     0.104400    0.008780    0.615375    0.000000
     5  C     c     0.958854    0.854432    0.881549    0.000000
     6  C     c     0.795982    0.475861    0.581689    0.000000
     7  C     c     0.615437    0.414413    0.679496    0.000000
     8  C     c     0.789156    0.713242    0.334755    0.000000
     9  C     c     0.884352    0.245058    0.326611    0.000000
    10  C     c     0.687361    0.159608    0.141487    0.000000
    11  C     c     0.870884    0.037486    0.360159    0.000000
    12  C     c     0.950730    0.931810    0.519925    0.000000
    13  C     c     0.516479    0.057905    0.150009    0.000000
    14  C     c     0.551732    0.979265    0.496646    0.000000
    15  C     c     0.469428    0.329068    0.001134    0.000000
    16  C     c     0.950455    0.349777    0.487631    0.000000
    17  C     c     0.160087    0.418702    0.830757    0.000000
    18  C     c     0.831932    0.733018    0.814664    0.000000
    19  C     c     0.913344    0.947527    0.036639    0.000000
    20  C     c     0.144123    0.915311    0.795208    0.000000
    21  C     c     0.871634    0.646717    0.656341    0.000000
    22  C     c     0.891073    0.123218    0.727517    0.000000
    23  C     c     0.499809    0.599272    0.413393    0.000000
    24  C     c     0.652188    0.703957    0.883048    0.000000
    25  C     c     0.640987    0.586854    0.027525    0.000000
    26  C     c     0.790763    0.973686    0.719748    0.000000
    27  C     c     0.472232    0.460752    0.576741    0.000000
    28  C     c     0.359558    0.640029    0.139450    0.000000
    29  C     c     0.591730    0.952510    0.691421    0.000000
    30  C     c     0.715869    0.339375    0.234089    0.000000
    31  C     c     0.009113    0.196114    0.155587    0.000000
    32  C     c     0.970937    0.394766    0.894487    0.000000
    33  C     c     0.504969    0.787115    0.784887    0.000000
    34  C     c     0.849389    0.135579    0.034076    0.000000
    35  C     c     0.354573    0.175616    0.711527    0.000000
    36  C     c     0.114547    0.477337    0.447128    0.000000
    37  C     c     0.184130    0.164458    0.081740    0.000000
    38  C     c     0.281833    0.398175    0.517012    0.000000
    39  C     c     0.102393    0.672504    0.420249    0.000000
    40  C     c     0.933669    0.497992    0.037873    0.000000
    41  C     c     0.834693    0.244630    0.871270    0.000000
    42  C     c     0.374411    0.213485    0.168586    0.000000
    43  C     c     0.394696    0.115558    0.507955    0.000000
    44  C     c     0.980336    0.711554    0.266415    0.000000
    45  C     c     0.395324    0.276589    0.367985    0.000000
    46  C     c     0.557034    0.398439    0.338585    0.000000
    47  C     c     0.308628    0.763841    0.783813    0.000000
    48  C     c     0.928128    0.898646    0.212442    0.000000
    49  C     c     0.767681    0.484938    0.108092    0.000000
    50  C     c     0.254401    0.803792    0.414357    0.000000
    51  C     c     0.706349    0.551384    0.408460    0.000000
    52  C     c     0.956227    0.748134    0.533116    0.000000
    53  C     c     0.231104    0.605071    0.863020    0.000000
    54  C     c     0.041607    0.617395    0.112830    0.000000
    55  C     c     0.626192    0.285836    0.846413    0.000000
    56  C     c     0.438825    0.012348    0.969146    0.000000
    57  C     c     0.520326    0.911838    0.286795    0.000000
    58  C     c     0.205355    0.644140    0.045587    0.000000
    59  C     c     0.036396    0.209486    0.613441    0.000000
    60  C     c     0.256909    0.961572    0.492946    0.000000
    61  C     c     0.714701    0.894321    0.370135    0.000000
    62  C     c     0.242746    0.007265    0.954122    0.000000
    63  C     c     0.517070    0.100278    0.809003    0.000000
    64  C     c     0.200055    0.303138    0.670009    0.000000

  Final internal derivatives :

   No.  Atomic          a             b             c           Radius
        Label          (eV)          (eV)          (eV)        (eV/Angs)
      1 C     c       0.000000      0.000000      0.000000      0.000000
      2 C     c       0.001463      0.004416     -0.001167      0.000000
      3 C     c       0.000476      0.002013      0.001168      0.000000
      4 C     c       0.001578     -0.002016     -0.000104      0.000000
      5 C     c      -0.001224      0.001160     -0.003860      0.000000
      6 C     c       0.000013     -0.000461     -0.000772      0.000000
      7 C     c      -0.001975      0.003791      0.003907      0.000000
      8 C     c      -0.002953     -0.005963     -0.002896      0.000000
      9 C     c       0.001042      0.002799     -0.001407      0.000000
     10 C     c       0.001119     -0.001746      0.001247      0.000000
     11 C     c       0.001362      0.000292      0.001767      0.000000
     12 C     c       0.000274      0.000110     -0.000245      0.000000
     13 C     c       0.002062      0.000187     -0.001451      0.000000
     14 C     c       0.000132     -0.001669     -0.000011      0.000000
     15 C     c       0.001776     -0.000406      0.001115      0.000000
     16 C     c       0.001835      0.001859      0.000086      0.000000
     17 C     c      -0.004206     -0.001046      0.002635      0.000000
     18 C     c      -0.001266      0.002049      0.000446      0.000000
     19 C     c       0.005186      0.000203      0.000393      0.000000
     20 C     c       0.001516      0.001075     -0.000022      0.000000
     21 C     c       0.000373      0.002511     -0.000528      0.000000
     22 C     c      -0.003226     -0.001393     -0.002619      0.000000
     23 C     c       0.000855     -0.003001     -0.000523      0.000000
     24 C     c      -0.002106      0.001481     -0.000525      0.000000
     25 C     c       0.001813      0.002023      0.001042      0.000000
     26 C     c      -0.003021     -0.002816     -0.002859      0.000000
     27 C     c       0.001905      0.001815     -0.008725      0.000000
     28 C     c       0.000697     -0.000302     -0.001855      0.000000
     29 C     c       0.001449     -0.000157      0.000272      0.000000
     30 C     c      -0.001408     -0.002651     -0.001427      0.000000
     31 C     c      -0.000953     -0.002869     -0.000804      0.000000
     32 C     c      -0.002621      0.000820     -0.001215      0.000000
     33 C     c       0.002080     -0.000316      0.000458      0.000000
     34 C     c      -0.003335      0.000367      0.000692      0.000000
     35 C     c      -0.000025     -0.000539     -0.003192      0.000000
     36 C     c      -0.004370     -0.000285     -0.001338      0.000000
     37 C     c      -0.004054      0.001118     -0.002658      0.000000
     38 C     c      -0.000214     -0.002865     -0.001192      0.000000
     39 C     c      -0.001421     -0.000247     -0.001570      0.000000
     40 C     c       0.003477     -0.001257      0.000572      0.000000
     41 C     c       0.000178      0.001521      0.002617      0.000000
     42 C     c      -0.001201     -0.002366     -0.001377      0.000000
     43 C     c       0.001405     -0.002876     -0.001603      0.000000
     44 C     c       0.001629      0.000541     -0.001152      0.000000
     45 C     c      -0.002505     -0.002745     -0.003535      0.000000
     46 C     c      -0.004001      0.002465      0.004814      0.000000
     47 C     c      -0.001194     -0.001697      0.000392      0.000000
     48 C     c       0.005030      0.007478     -0.003177      0.000000
     49 C     c       0.003996      0.000939      0.001282      0.000000
     50 C     c      -0.001452     -0.000347      0.001208      0.000000
     51 C     c      -0.000091      0.001392      0.002113      0.000000
     52 C     c       0.000999      0.001182     -0.000784      0.000000
     53 C     c       0.005322     -0.001332      0.000393      0.000000
     54 C     c       0.000529      0.001281     -0.000349      0.000000
     55 C     c      -0.001225      0.002172      0.000175      0.000000
     56 C     c      -0.000722      0.004218     -0.000201      0.000000
     57 C     c       0.003516      0.001861     -0.001286      0.000000
     58 C     c       0.000777     -0.003212     -0.000266      0.000000
     59 C     c      -0.002252      0.004804      0.000649      0.000000
     60 C     c       0.000327      0.000650      0.000312      0.000000
     61 C     c       0.002937      0.002868      0.000051      0.000000
     62 C     c      -0.001658     -0.002694     -0.004480      0.000000
     63 C     c      -0.001976      0.000540      0.001079      0.000000
     64 C     c      -0.002804      0.000161     -0.003271      0.000000
  Maximum abs         0.005322      0.007478      0.008725      0.000000

  Time to end of optimisation =       3.3334 seconds

  Timing analysis for GULP :

  Task / Subroutine                                          Time (Seconds)
  Calculation of Brenner energy and derivatives                   3.2168
  Calculation of matrix inversion                                 0.0002

  CIF file written as opti_0.9925.cif

  Job Finished at 13:04.20 31st July       2020