  Job Started  at 01:24.56  5th December   2020

  Number of CPUs =    20

  Total number of configurations input =      1

*  Input for Configuration =   1                                               *

  Formula = C512

  Number of irreducible atoms/shells =     512

  Total number atoms/shells =     512

  Dimensionality = 3               :  Bulk

  Cartesian lattice vectors (Angstroms) :

       15.291200    0.000000    0.000000
        0.000000   15.291200    0.000000
        0.000000    0.000000   15.291200

  Cell parameters (Angstroms/Degrees):

  a =      15.2912    alpha =  90.0000
  b =      15.2912    beta  =  90.0000
  c =      15.2912    gamma =  90.0000

  Initial cell volume =        3575.400578 Angs**3

  Temperature of configuration =  0.000     K

  Pressure of configuration =         0.000 GPa

  Fractional coordinates of asymmetric unit :

   No.  Atomic       x           y          z         Charge      Occupancy
        Label      (Frac)      (Frac)     (Frac)        (e)         (Frac)
      1 C     c    0.408700 *  0.954610 *  0.993940 *   0.00000    1.000000
      2 C     c    0.031560 *  0.056190 *  0.682950 *   0.00000    1.000000
      3 C     c    0.345770 *  0.933750 *  0.704670 *   0.00000    1.000000
      4 C     c    0.320250 *  0.494800 *  0.487860 *   0.00000    1.000000
      5 C     c    0.090430 *  0.050830 *  0.537110 *   0.00000    1.000000
      6 C     c    0.042050 *  0.741550 *  0.547080 *   0.00000    1.000000
      7 C     c    0.889010 *  0.225770 *  0.913490 *   0.00000    1.000000
      8 C     c    0.669180 *  0.309150 *  0.265350 *   0.00000    1.000000
      9 C     c    0.976600 *  0.172060 *  0.553140 *   0.00000    1.000000
     10 C     c    0.521800 *  0.376900 *  0.895030 *   0.00000    1.000000
     11 C     c    0.471580 *  0.556010 *  0.580950 *   0.00000    1.000000
     12 C     c    0.697000 *  0.329400 *  0.369060 *   0.00000    1.000000
     13 C     c    0.041210 *  0.080930 *  0.363690 *   0.00000    1.000000
     14 C     c    0.544100 *  0.317170 *  0.102670 *   0.00000    1.000000
     15 C     c    0.088600 *  0.000780 *  0.356280 *   0.00000    1.000000
     16 C     c    0.944950 *  0.075410 *  0.866920 *   0.00000    1.000000
     17 C     c    0.494700 *  0.769170 *  0.265730 *   0.00000    1.000000
     18 C     c    0.606480 *  0.232780 *  0.943610 *   0.00000    1.000000
     19 C     c    0.437860 *  0.415970 *  0.760420 *   0.00000    1.000000
     20 C     c    0.431200 *  0.794650 *  0.817680 *   0.00000    1.000000
     21 C     c    0.543560 *  0.692220 *  0.877320 *   0.00000    1.000000
     22 C     c    0.445020 *  0.292120 *  0.070780 *   0.00000    1.000000
     23 C     c    0.296010 *  0.776730 *  0.293240 *   0.00000    1.000000
     24 C     c    0.191630 *  0.376380 *  0.645130 *   0.00000    1.000000
     25 C     c    0.096390 *  0.479930 *  0.427510 *   0.00000    1.000000
     26 C     c    0.465560 *  0.321240 *  0.241120 *   0.00000    1.000000
     27 C     c    0.765570 *  0.388960 *  0.327500 *   0.00000    1.000000
     28 C     c    0.087520 *  0.825950 *  0.531120 *   0.00000    1.000000
     29 C     c    0.087710 *  0.137900 *  0.218970 *   0.00000    1.000000
     30 C     c    0.021020 *  0.280500 *  0.675680 *   0.00000    1.000000
     31 C     c    0.104140 *  0.826850 *  0.431000 *   0.00000    1.000000
     32 C     c    0.285720 *  0.344930 *  0.137380 *   0.00000    1.000000
     33 C     c    0.522270 *  0.770470 *  0.520210 *   0.00000    1.000000
     34 C     c    0.337930 *  0.108750 *  0.934810 *   0.00000    1.000000
     35 C     c    0.142230 *  0.369540 *  0.268630 *   0.00000    1.000000
     36 C     c    0.452930 *  0.163860 *  0.216920 *   0.00000    1.000000
     37 C     c    0.678300 *  0.435500 *  0.832580 *   0.00000    1.000000
     38 C     c    0.384900 *  0.172080 *  0.855910 *   0.00000    1.000000
     39 C     c    0.220090 *  0.606360 *  0.423030 *   0.00000    1.000000
     40 C     c    0.036130 *  0.381190 *  0.698560 *   0.00000    1.000000
     41 C     c    0.423890 *  0.625780 *  0.461700 *   0.00000    1.000000
     42 C     c    0.297560 *  0.393140 *  0.510470 *   0.00000    1.000000
     43 C     c    0.307680 *  0.266350 *  0.192990 *   0.00000    1.000000
     44 C     c    0.073740 *  0.503160 *  0.524830 *   0.00000    1.000000
     45 C     c    0.712540 *  0.953340 *  0.978570 *   0.00000    1.000000
     46 C     c    0.486470 *  0.146690 *  0.357470 *   0.00000    1.000000
     47 C     c    0.998150 *  0.753780 *  0.152280 *   0.00000    1.000000
     48 C     c    0.602110 *  0.230060 *  0.142620 *   0.00000    1.000000
     49 C     c    0.228750 *  0.238670 *  0.917610 *   0.00000    1.000000
     50 C     c    0.277350 *  0.557840 *  0.274960 *   0.00000    1.000000
     51 C     c    0.693750 *  0.884350 *  0.634210 *   0.00000    1.000000
     52 C     c    0.142930 *  0.063340 *  0.049970 *   0.00000    1.000000
     53 C     c    0.788540 *  0.411410 *  0.006250 *   0.00000    1.000000
     54 C     c    0.222010 *  0.080090 *  0.114580 *   0.00000    1.000000
     55 C     c    0.225980 *  0.222610 *  0.236270 *   0.00000    1.000000
     56 C     c    0.682610 *  0.681540 *  0.121930 *   0.00000    1.000000
     57 C     c    0.332510 *  0.464060 *  0.655770 *   0.00000    1.000000
     58 C     c    0.824320 *  0.624710 *  0.368670 *   0.00000    1.000000
     59 C     c    0.401120 *  0.184710 *  0.312950 *   0.00000    1.000000
     60 C     c    0.408920 *  0.579300 *  0.865520 *   0.00000    1.000000
[...]
    497 C     c    0.843050 *  0.327530 *  0.315160 *   0.00000    1.000000
    498 C     c    0.482610 *  0.143370 *  0.811270 *   0.00000    1.000000
    499 C     c    0.551640 *  0.535260 *  0.938460 *   0.00000    1.000000
    500 C     c    0.402360 *  0.124250 *  0.015940 *   0.00000    1.000000
    501 C     c    0.908330 *  0.790590 *  0.398160 *   0.00000    1.000000
    502 C     c    0.351330 *  0.311410 *  0.656720 *   0.00000    1.000000
    503 C     c    0.619270 *  0.969270 *  0.178420 *   0.00000    1.000000
    504 C     c    0.758740 *  0.017580 *  0.449560 *   0.00000    1.000000
    505 C     c    0.850980 *  0.512880 *  0.750060 *   0.00000    1.000000
    506 C     c    0.844790 *  0.078330 *  0.537520 *   0.00000    1.000000
    507 C     c    0.967880 *  0.604060 *  0.182760 *   0.00000    1.000000
    508 C     c    0.656910 *  0.889270 *  0.721640 *   0.00000    1.000000
    509 C     c    0.322370 *  0.759080 *  0.206730 *   0.00000    1.000000
    510 C     c    0.145600 *  0.767410 *  0.944260 *   0.00000    1.000000
    511 C     c    0.047900 *  0.156210 *  0.308960 *   0.00000    1.000000
    512 C     c    0.093400    0.176450    0.948390     0.00000    1.000000

  Constraints :

  Constraint no.      Unconstrained     Constrained    Coefficient    Offset
                         Variable         Variable
           1              Strain 1        Strain 2       1.00000      0.0000
           2              Strain 1        Strain 3       1.00000      0.0000

  Brillouin zone sampling points :

  Point number          x          y          z            Weight
        1           0.000000   0.000000   0.000000     1.00000000

*  General input information                                                   *

  Species output for all configurations :

  Species    Type    Atomic    Atomic    Charge       Radii (Angs)     Library
                     Number     Mass       (e)     Cova   Ionic  VDW   Symbol
    C        Core        6      12.01   0.000000   0.770  0.000  1.530

  Lattice summation method               =    Ewald          (3-D)
                                         =    Parry          (2-D)
                                         =    Saunders et al (1-D)
  Accuracy factor for lattice sums       =   12.000

  Time limit = Infinity

  Maximum range for interatomic potentials =    100000.000000 Angstroms

  Brenner et al 2002 potential to be used with explicit splines for P

*  Output for configuration   1                                                *

  Components of energy :

  Interatomic potentials     =           0.00000000 eV
  Brenner potentials         =       -3399.16287529 eV
  Monopole - monopole (real) =           0.00000000 eV
  Monopole - monopole (recip)=           0.00000000 eV
  Monopole - monopole (total)=           0.00000000 eV
  Total lattice energy       =       -3399.16287529 eV
  Total lattice energy       =         -327967.2565 kJ/(mole unit cells)

  Number of variables =     1534

  Maximum number of calculations  =          2000
  Maximum Hessian update interval =            10
  Maximum step size               =   1.000000000
  Maximum parameter tolerance     =   0.000010000
  Maximum function  tolerance     =   0.000010000
  Maximum gradient  tolerance     =   0.001000000
  Maximum gradient  component     =   0.010000000

  Maximum LM gradient tolerance   =   0.900000000
  Symmetry not applied to optimisation

  Cell parameters to be optimised using strains

  BFGS hessian update to be used

  General 2-D hessian to be used

  Start of bulk optimisation :

  **** Optimisation achieved ****

  Final energy =   -3399.16296654 eV
  Final Gnorm  =       0.00005970

  Components of energy :

  Interatomic potentials     =           0.00000000 eV
  Brenner potentials         =       -3399.16296654 eV
  Monopole - monopole (real) =           0.00000000 eV
  Monopole - monopole (recip)=           0.00000000 eV
  Monopole - monopole (total)=           0.00000000 eV
  Total lattice energy       =       -3399.16296654 eV
  Total lattice energy       =         -327967.2653 kJ/(mole unit cells)

  Final fractional coordinates of atoms :

   No.  Atomic        x           y          z          Radius
        Label       (Frac)      (Frac)     (Frac)       (Angs)
     1  C     c     0.408703    0.954607    0.993939    0.000000
     2  C     c     0.031560    0.056186    0.682953    0.000000
     3  C     c     0.345771    0.933750    0.704668    0.000000
     4  C     c     0.320247    0.494796    0.487855    0.000000
     5  C     c     0.090433    0.050828    0.537107    0.000000
     6  C     c     0.042048    0.741553    0.547084    0.000000
     7  C     c     0.889014    0.225766    0.913491    0.000000
     8  C     c     0.669180    0.309145    0.265346    0.000000
     9  C     c     0.976601    0.172061    0.553142    0.000000
    10  C     c     0.521797    0.376903    0.895027    0.000000
    11  C     c     0.471582    0.556011    0.580953    0.000000
    12  C     c     0.696995    0.329396    0.369059    0.000000
    13  C     c     0.041209    0.080932    0.363688    0.000000
    14  C     c     0.544097    0.317165    0.102670    0.000000
    15  C     c     0.088603    0.000778    0.356279    0.000000
    16  C     c     0.944948    0.075407    0.866917    0.000000
    17  C     c     0.494698    0.769170    0.265725    0.000000
    18  C     c     0.606480    0.232779    0.943609    0.000000
    19  C     c     0.437861    0.415972    0.760422    0.000000
    20  C     c     0.431202    0.794648    0.817681    0.000000
[...]
     46 C     c       0.001686      0.002072      0.000651      0.000000
     47 C     c      -0.000491      0.001111      0.001024      0.000000
     48 C     c      -0.000427      0.001026      0.000862      0.000000
     49 C     c       0.000437      0.000584     -0.000710      0.000000
     50 C     c       0.001482     -0.003016      0.000541      0.000000
     51 C     c      -0.021287      0.013478     -0.004492      0.000000
     52 C     c      -0.000247      0.003750      0.000962      0.000000
     53 C     c      -0.001039      0.000179      0.000889      0.000000
     54 C     c      -0.000924      0.003364     -0.000553      0.000000
     55 C     c       0.005302      0.000820     -0.000109      0.000000
     56 C     c      -0.002213     -0.001028     -0.001612      0.000000
     57 C     c      -0.001224     -0.000359     -0.000110      0.000000
     58 C     c       0.000434     -0.001565     -0.000346      0.000000
     59 C     c       0.002109      0.000955     -0.000939      0.000000
     60 C     c      -0.002950     -0.000291     -0.001771      0.000000
[...]
    498 C     c      -0.001068      0.002132      0.001999      0.000000
    499 C     c       0.002978      0.001162      0.001013      0.000000
    500 C     c       0.000069      0.001346      0.007721      0.000000
    501 C     c       0.000336      0.000897     -0.000212      0.000000
    502 C     c      -0.001958      0.001635     -0.000349      0.000000
    503 C     c      -0.001785     -0.001873     -0.000271      0.000000
    504 C     c       0.010812     -0.002040      0.004605      0.000000
    505 C     c       0.000122     -0.000549     -0.001575      0.000000
    506 C     c       0.010636      0.008815     -0.000256      0.000000
    507 C     c       0.002369     -0.001975     -0.004116      0.000000
    508 C     c      -0.000629      0.000998      0.002486      0.000000
    509 C     c      -0.000624      0.001742     -0.001523      0.000000
    510 C     c       0.002532     -0.000004     -0.001018      0.000000
    511 C     c      -0.001726     -0.002265     -0.000738      0.000000
    512 C     c       0.000000      0.000000      0.000000      0.000000
  Maximum abs         0.021287      0.014658      0.015362      0.000000

  Elastic Constant Matrix: (Units=GPa)

  Indices      1         2         3         4         5         6
       1    374.8307  139.2814  129.2877    1.3525   24.4430  -20.4548
       2    139.2814  399.8408  147.2581    1.3090   -1.6131  -23.8750
       3    129.2877  147.2581  369.8528   -0.9699   17.8269    4.4272
       4      1.3525    1.3090   -0.9699  139.9198   -7.8009   -4.3077
       5     24.4430   -1.6131   17.8269   -7.8009  125.9096    0.2034
       6    -20.4548  -23.8750    4.4272   -4.3077    0.2034  132.6286

  Elastic Constant Tensor Eigenvalues: (Units=GPa)

     1 =   118.5971     2 =   126.9489     3 =   143.3556
     4 =   241.5212     5 =   250.9084     6 =   661.6510

  Elastic Compliance Matrix: (Units=1/GPa)

  Indices      1         2         3         4         5         6
       1    0.003313 -0.000837 -0.000803 -0.000048 -0.000544  0.000386
       2   -0.000837  0.003191 -0.001000  0.000005  0.000345  0.000478
       3   -0.000803 -0.001000  0.003404  0.000009 -0.000338 -0.000417
       4   -0.000048  0.000005  0.000009  0.007180  0.000453  0.000226
       5   -0.000544  0.000345 -0.000338  0.000453  0.008128 -0.000008
       6    0.000386  0.000478 -0.000417  0.000226 -0.000008  0.007707

  Mechanical properties :

  Convention :                    Reuss         Voigt         Hill
  Bulk  Modulus (GPa)     =     216.14006     219.57542     217.85774
  Shear Modulus (GPa)     =     125.80110     128.27139     127.03625
  Velocity S-wave (km/s)  =       6.63694       6.70179       6.66945
  Velocity P-wave (km/s)  =      11.59366      11.69484      11.64436
  Compressibility (1/GPa) =    0.00462663
  Stress axis :                     x             y             z
  Youngs Moduli (GPa)     =     301.86935     313.39389     293.76590
  Poissons Ratio (x)      =                     0.26234       0.23597
  Poissons Ratio (y)      =       0.25269                     0.29381
  Poissons Ratio (z)      =       0.24248       0.31344

  Piezoelectric Strain Matrix: (Units=C/m**2)

  Indices      1         2         3         4         5         6
       x    -0.00000  -0.00000  -0.00000  -0.00000  -0.00000  -0.00000
       y    -0.00000  -0.00000  -0.00000  -0.00000  -0.00000  -0.00000
       z    -0.00000  -0.00000  -0.00000  -0.00000  -0.00000  -0.00000

  Piezoelectric Stress Matrix: (Units=10**-11 C/N)

  Indices      1         2         3         4         5         6
       x     0.00000   0.00000   0.00000   0.00000   0.00000   0.00000
       y     0.00000   0.00000   0.00000   0.00000   0.00000   0.00000
       z     0.00000   0.00000   0.00000   0.00000   0.00000   0.00000

  Static dielectric constant tensor :

              x         y         z
       x     1.00000   0.00000   0.00000
       y     0.00000   1.00000   0.00000
       z     0.00000   0.00000   1.00000

  Static refractive indices :

    1 =    1.00000      2 =    1.00000      3 =    1.00000

  Phonon Calculation :

  Number of k points for this configuration =        1

  K point      1 =   0.000000  0.000000  0.000000  Weight =    1.000

  Frequencies (cm-1) [NB: Negative implies an imaginary mode]:

   -0.00   -0.00    0.00   93.84  101.55  118.07  120.26  124.25  128.17
  131.29  133.78  136.34  140.05  141.70  142.52  146.34  148.01  148.59
  151.13  151.41  157.55  162.82  164.41  164.74  165.26  168.43  170.64
  172.42  174.28  175.40  179.01  180.51  184.43  185.31  186.65  188.97
  189.69  190.34  192.29  194.60  196.21  198.09  200.71  202.32  203.60
  204.81  209.31  209.57  210.51  214.59  215.81  217.16  218.44  219.47
  220.75  221.57  222.84  226.10  226.74  227.41  229.62  231.06  233.20
  233.42  236.01  237.02  237.99  238.86  240.70  241.15  244.06  245.95
  245.96  247.26  248.61  250.28  251.07  252.44  253.69  254.86  255.19
  257.08  258.83  260.31  261.35  262.19  262.72  264.25  266.07  267.38
  268.85  270.28  270.69  273.47  274.44  274.73  275.91  277.09  277.81
  280.37  281.87  282.65  283.85  286.24  286.83  287.61  289.00  289.46
  290.12  291.28  292.42  294.91  295.14  296.76  298.37  299.15  301.11
  301.60  303.42  304.52  306.24  307.46  308.20  310.33  310.58  311.12
  313.02  314.02  315.10  316.45  317.36  318.63  319.78  320.59  322.52
  323.26  324.46  326.11  326.71  328.40  328.85  330.04  330.51  332.20
  332.86  333.85  335.04  335.80  337.27  338.54  340.49  341.36  341.40
  343.42  343.95  344.55  345.17  346.18  347.85  348.36  349.32  350.15
  351.37  351.59  352.54  354.36  356.17  357.71  358.45  359.21  360.51
  361.19  362.26  364.14  365.36  366.20  366.62  367.91  369.03  369.91
  371.20  371.84  373.99  374.42  375.36  375.86  376.63  377.47  378.29
  380.55  380.97  382.36  382.61  384.52  384.94  385.47  386.15  386.56
  388.56  389.69  390.59  391.95  392.04  393.43  395.82  396.09  396.87
  396.93  398.02  399.21  399.90  400.81  402.71  402.99  404.31  404.77
  406.57  408.02  408.92  409.72  410.88  412.30  412.54  414.39  414.74
  415.16  416.12  417.26  418.12  418.92  419.69  421.00  421.41  422.38
  423.81  424.54  425.32  425.45  427.09  427.99  429.68  430.82  431.07
  432.86  434.27  434.58  435.19  436.01  436.54  438.01  438.52  440.81
  441.36  442.92  443.99  444.79  444.99  446.46  447.54  447.63  448.53
  448.96  450.02  450.06  451.62  453.56  453.98  455.65  456.73  457.51
  458.19  459.17  460.38  461.13  461.74  462.47  464.13  464.95  465.54
  466.68  468.34  469.02  469.90  470.41  471.29  472.70  474.07  474.41
  475.02  476.79  477.65  478.41  479.57  481.00  481.43  482.64  483.31
  483.88  484.67  486.00  487.16  488.08  488.81  489.38  490.42  491.70
  492.35  493.23  494.59  495.21  495.95  496.91  498.14  499.12  499.50
  499.68  501.22  501.40  502.30  502.56  505.21  505.78  506.59  507.41
  508.80  510.31  510.52  511.42  511.81  513.36  514.58  515.51  516.19
  517.44  517.76  518.48  519.69  519.99  521.15  521.68  522.92  524.30
  524.76  525.70  526.42  527.59  528.11  529.50  531.12  531.35  532.69
  533.51  534.27  534.37  536.90  537.28  538.03  539.43  540.61  541.21
  542.76  543.08  543.94  544.21  545.81  546.02  546.66  548.01  548.17
  548.46  550.76  551.22  552.25  553.42  554.72  555.28  556.53  557.80
  557.84  559.19  559.94  561.69  563.38  563.77  564.12  565.37  565.77
  566.22  567.81  568.25  569.17  569.75  571.34  571.76  573.32  574.22
  575.60  575.92  576.73  577.64  577.95  579.17  579.57  580.44  582.19
  583.36  583.92  584.64  585.47  586.18  587.46  588.27  589.14  589.71
  591.35  591.81  592.86  594.19  594.65  596.21  596.61  597.86  598.16
  598.80  599.52  600.34  601.29  602.48  603.53  604.71  605.04  606.46
  607.49  608.00  608.24  609.61  609.84  610.85  611.56  612.57  613.44
  614.23  615.74  616.79  617.08  617.27  618.76  619.54  620.43  621.57
  622.93  623.16  624.80  625.30  626.22  627.05  628.79  629.10  630.21
  630.58  632.56  632.97  633.73  634.10  634.98  635.30  636.38  637.99
  639.10  639.45  640.04  641.39  641.88  642.84  643.27  643.61  645.23
  646.21  646.73  648.48  649.29  650.82  651.21  651.31  651.73  652.59
  654.07  654.64  655.44  656.34  657.37  658.40  659.10  660.24  660.78
  661.65  663.05  663.97  666.54  667.18  668.74  669.16  669.71  670.63
  671.45  672.97  673.37  673.57  674.19  674.53  675.22  676.04  677.41
  677.71  678.19  679.16  681.05  681.64  682.70  683.48  685.10  685.57
  685.98  687.29  688.35  689.16  690.59  691.04  692.39  693.09  694.19
  695.76  696.19  696.71  697.98  698.30  699.37  699.48  700.31  700.44
[...]
 1700.77 1702.49 1705.67 1706.60 1706.83 1707.89 1712.54 1715.15 1719.79
 1720.90 1723.45 1726.80 1727.82 1733.38 1734.18 1738.20 1738.67 1742.53
 1743.31 1744.93 1753.11 1763.22 1765.40 1771.28 1774.59 1778.43 1778.99
 1784.40 1792.55 1793.64 1795.22 1796.31 1804.25 1808.23 1810.82 1812.17
 1812.58 1823.97 1825.82 1835.34 1835.47 1836.97 1837.03 1844.50 1849.65
 1855.27 1857.96 1858.26 1861.86 1868.84 1881.20 1893.90 1900.10 1924.28
 1927.09 1928.75 1930.30 1941.82 1943.08 1946.80 1958.94 1962.54 1972.36
 1976.29 1997.48 1997.85 2015.08 2053.35 2071.28 2093.90 2133.12 2137.79
 2178.29 2178.85 2213.48 2214.19 2246.81 2251.17 2297.95 2342.96 2411.70
 2424.79 2450.18 2456.62 2476.75 2494.50 2509.69 2519.34 2525.41 2553.47
 2560.83 2591.07 2612.97 2626.36 2639.27 2663.14 2673.65 2676.42 2679.31
 2686.34 2705.97 2716.86 2723.26 2750.02 2768.56 2783.36 2812.90 2813.74
 2830.43 2850.55 2890.80 2921.87 2946.37 2964.36 2976.92 2986.52 2994.40
 3011.06 3091.87 3093.79 3120.90 3150.72 3153.43 3195.53 3215.32 3223.78
 3300.59 3525.53 3608.40 3721.39 3809.77 4356.19

  Phonon properties (per mole of unit cells): Temperature =      0.000 K
  Zero point energy            =       95.062674 eV

  Phonon density of states :

 Frequency (cm-1) Density of States
    0.00000 |                                                              0.001
   68.06554 |******                                                        0.005
  136.13107 |**************************                                    0.022
  204.19661 |*************************************                         0.031
  272.26214 |*********************************************                 0.037
  340.32768 |*****************************************************         0.044
  408.39321 |********************************************************      0.046
  476.45875 |***********************************************************   0.049
  544.52428 |************************************************************  0.050
  612.58982 |************************************************************  0.050
  680.65535 |*********************************************************     0.048
  748.72089 |***********************************************************   0.049
  816.78643 |***********************************************************   0.049
  884.85196 |******************************************************        0.045
  952.91750 |**************************************************            0.042
 1020.98303 |**************************************************            0.042
 1089.04857 |*************************************************             0.041
 1157.11410 |*********************************************                 0.037
 1225.17964 |************************************************              0.040
 1293.24517 |*********************************************                 0.038
 1361.31071 |******************************************                    0.035
 1429.37624 |***************************************                       0.033
 1497.44178 |**********************************                            0.029
 1565.50732 |************************************                          0.030
 1633.57285 |****************************                                  0.023
 1701.63839 |*****************                                             0.014
 1769.70392 |***************                                               0.013
 1837.76946 |*******                                                       0.007
 1905.83499 |*******                                                       0.007
 1973.90053 |***                                                           0.003
 2041.96606 |**                                                            0.002
 2110.03160 |*                                                             0.001
 2178.09714 |***                                                           0.003
 2246.16267 |**                                                            0.002
 2314.22821 |                                                              0.001
 2382.29374 |**                                                            0.002
 2450.35928 |***                                                           0.003
 2518.42481 |***                                                           0.003
 2586.49035 |***                                                           0.003
 2654.55588 |*****                                                         0.005
 2722.62142 |***                                                           0.003
 2790.68695 |***                                                           0.003
 2858.75249 |*                                                             0.001
 2926.81803 |***                                                           0.003
 2994.88356 |                                                              0.001
 3062.94910 |**                                                            0.002
 3131.01463 |**                                                            0.002
 3199.08017 |*                                                             0.001
 3267.14570 |                                                              0.001
 3335.21124 |                                                              0.000
 3403.27677 |                                                              0.000
 3471.34231 |                                                              0.001
 3539.40784 |                                                              0.000
 3607.47338 |                                                              0.001
 3675.53892 |                                                              0.001
 3743.60445 |                                                              0.001
 3811.66999 |                                                              0.000
 3879.73552 |                                                              0.000
 3947.80106 |                                                              0.000
 4015.86659 |                                                              0.000
 4083.93213 |                                                              0.000
 4151.99766 |                                                              0.000
 4220.06320 |                                                              0.000
 4288.12873 |                                                              0.001

  Time to end of optimisation =       9.1649 seconds

  Timing analysis for GULP :

  Task / Subroutine                                          Time (Seconds)
  Calculation of real space energy and derivatives                0.0005
  Calculation of Brenner energy and derivatives                   6.0887
  Calculation of phonons                                          2.7213
  Global summation overhead                                       1.3647

  CIF file written as opti.cif

  Job Finished at 01:25.05  5th December   2020