  Job Started  at 23:38.24 10th August     2020

  Number of CPUs =     1

  Total number of configurations input =      1

*  Input for Configuration =   1                                               *

  Formula = C64

  Number of irreducible atoms/shells =      64

  Total number atoms/shells =      64

  Dimensionality = 3               :  Bulk

  Cartesian lattice vectors (Angstroms) :

        7.659373    0.000000    0.000000
        0.000000    7.659373    0.000000
        0.000000    0.000000    7.659373

  Cell parameters (Angstroms/Degrees):

  a =       7.6594    alpha =  90.0000
  b =       7.6594    beta  =  90.0000
  c =       7.6594    gamma =  90.0000

  Initial cell volume =         449.344736 Angs**3

  Temperature of configuration =   0.00     K

  Pressure of configuration =         0.000 GPa

  Fractional coordinates of asymmetric unit :

   No.  Atomic       x           y          z         Charge      Occupancy
        Label      (Frac)      (Frac)     (Frac)        (e)         (Frac)
      1 C     c    0.025100    0.587150    0.365320     0.00000    1.000000
      2 C     c    0.261960 *  0.102350 *  0.107880 *   0.00000    1.000000
      3 C     c    0.100080 *  0.438460 *  0.267700 *   0.00000    1.000000
      4 C     c    0.878960 *  0.966820 *  0.452800 *   0.00000    1.000000
      5 C     c    0.476970 *  0.917400 *  0.988740 *   0.00000    1.000000
      6 C     c    0.786990 *  0.447150 *  0.220140 *   0.00000    1.000000
      7 C     c    0.923040 *  0.637530 *  0.717050 *   0.00000    1.000000
      8 C     c    0.810170 *  0.554570 *  0.590270 *   0.00000    1.000000
      9 C     c    0.131790 *  0.380040 *  0.638710 *   0.00000    1.000000
     10 C     c    0.404270 *  0.764550 *  0.117610 *   0.00000    1.000000
     11 C     c    0.889700 *  0.256980 *  0.746610 *   0.00000    1.000000
     12 C     c    0.569910 *  0.900620 *  0.557400 *   0.00000    1.000000
     13 C     c    0.425650 *  0.240870 *  0.632440 *   0.00000    1.000000
     14 C     c    0.200020 *  0.983730 *  0.798590 *   0.00000    1.000000
     15 C     c    0.523060 *  0.608540 *  0.406760 *   0.00000    1.000000
     16 C     c    0.987720 *  0.938200 *  0.121300 *   0.00000    1.000000
     17 C     c    0.134680 *  0.821550 *  0.858210 *   0.00000    1.000000
     18 C     c    0.347750 *  0.690110 *  0.662490 *   0.00000    1.000000
     19 C     c    0.738190 *  0.384180 *  0.683430 *   0.00000    1.000000
     20 C     c    0.046460 *  0.258110 *  0.266300 *   0.00000    1.000000
     21 C     c    0.936080 *  0.173340 *  0.419850 *   0.00000    1.000000
     22 C     c    0.843300 *  0.615880 *  0.414960 *   0.00000    1.000000
     23 C     c    0.478470 *  0.818970 *  0.689890 *   0.00000    1.000000
     24 C     c    0.794120 *  0.296780 *  0.327440 *   0.00000    1.000000
     25 C     c    0.669440 *  0.161030 *  0.017330 *   0.00000    1.000000
     26 C     c    0.520340 *  0.604650 *  0.088350 *   0.00000    1.000000
     27 C     c    0.606080 *  0.280540 *  0.571440 *   0.00000    1.000000
     28 C     c    0.633890 *  0.989520 *  0.119020 *   0.00000    1.000000
     29 C     c    0.479160 *  0.916090 *  0.251290 *   0.00000    1.000000
     30 C     c    0.339390 *  0.056680 *  0.923070 *   0.00000    1.000000
     31 C     c    0.810280 *  0.113020 *  0.884120 *   0.00000    1.000000
     32 C     c    0.867960 *  0.767490 *  0.838100 *   0.00000    1.000000
     33 C     c    0.307470 *  0.395320 *  0.575810 *   0.00000    1.000000
     34 C     c    0.226620 *  0.687030 *  0.123410 *   0.00000    1.000000
     35 C     c    0.071610 *  0.510040 *  0.779400 *   0.00000    1.000000
     36 C     c    0.326190 *  0.102150 *  0.509580 *   0.00000    1.000000
     37 C     c    0.121970 *  0.741100 *  0.423810 *   0.00000    1.000000
     38 C     c    0.542650 *  0.314790 *  0.957100 *   0.00000    1.000000
     39 C     c    0.063420 *  0.131370 *  0.109250 *   0.00000    1.000000
     40 C     c    0.769650 *  0.942180 *  0.796810 *   0.00000    1.000000
     41 C     c    0.392750 *  0.558230 *  0.534200 *   0.00000    1.000000
     42 C     c    0.068190 *  0.896530 *  0.498720 *   0.00000    1.000000
     43 C     c    0.001700 *  0.428840 *  0.954850 *   0.00000    1.000000
     44 C     c    0.238470 *  0.500650 *  0.156150 *   0.00000    1.000000
     45 C     c    0.195640 *  0.672080 *  0.768160 *   0.00000    1.000000
     46 C     c    0.892950 *  0.519810 *  0.081840 *   0.00000    1.000000
     47 C     c    0.799970 *  0.863030 *  0.155410 *   0.00000    1.000000
     48 C     c    0.985830 *  0.222020 *  0.949250 *   0.00000    1.000000
     49 C     c    0.775600 *  0.805370 *  0.350130 *   0.00000    1.000000
     50 C     c    0.821570 *  0.700470 *  0.025360 *   0.00000    1.000000
     51 C     c    0.158980 *  0.041530 *  0.607950 *   0.00000    1.000000
     52 C     c    0.476040 *  0.263670 *  0.276630 *   0.00000    1.000000
     53 C     c    0.434680 *  0.399100 *  0.122780 *   0.00000    1.000000
     54 C     c    0.365660 *  0.086630 *  0.294640 *   0.00000    1.000000
     55 C     c    0.624160 *  0.266270 *  0.391700 *   0.00000    1.000000
     56 C     c    0.422290 *  0.211340 *  0.832230 *   0.00000    1.000000
     57 C     c    0.643820 *  0.455720 *  0.850330 *   0.00000    1.000000
     58 C     c    0.737120 *  0.967710 *  0.602660 *   0.00000    1.000000
     59 C     c    0.099210 *  0.802470 *  0.043610 *   0.00000    1.000000
     60 C     c    0.617730 *  0.536110 *  0.254430 *   0.00000    1.000000
     61 C     c    0.572990 *  0.809180 *  0.390000 *   0.00000    1.000000
     62 C     c    0.027000 *  0.208410 *  0.602340 *   0.00000    1.000000
     63 C     c    0.640770 *  0.641500 *  0.932270 *   0.00000    1.000000
     64 C     c    0.588560 *  0.824650 *  0.852350 *   0.00000    1.000000

  Constraints :

  Constraint no.      Unconstrained     Constrained    Coefficient    Offset
                         Variable         Variable
           1              Strain 1        Strain 2       1.00000      0.0000
           2              Strain 1        Strain 3       1.00000      0.0000

*  General input information                                                   *

  Species output for all configurations :

  Species    Type    Atomic    Atomic    Charge       Radii (Angs)     Library
                     Number     Mass       (e)     Cova   Ionic  VDW   Symbol
    C        Core        6      12.01   0.000000   0.770  0.000  1.530

  Lattice summation method               =    Ewald          (3-D)
                                         =    Parry          (2-D)
                                         =    Saunders et al (1-D)
  Accuracy factor for lattice sums       =   12.000

  Analytic derivatives to be used

  Time limit = Infinity

  Maximum range for interatomic potentials =    100000.000000 Angstroms

  Brenner et al 2002 potential to be used with explicit splines for P

*  Output for configuration   1                                                *

  Components of energy :

  Interatomic potentials     =           0.00000000 eV
  Brenner potentials         =        -427.87406203 eV
  Monopole - monopole (real) =           0.00000000 eV
  Monopole - monopole (recip)=           0.00000000 eV
  Monopole - monopole (total)=           0.00000000 eV
  Total lattice energy       =        -427.87406203 eV
  Total lattice energy       =          -41283.3063 kJ/(mole unit cells)

  Number of variables =      189

  Maximum number of calculations  =          2000
  Maximum Hessian update interval =            10
  Maximum step size               =   1.000000000
  Maximum parameter tolerance     =   0.000010000
  Maximum function  tolerance     =   0.000010000
  Maximum gradient  tolerance     =   0.001000000
  Maximum gradient  component     =   0.010000000

  Symmetry not applied to optimisation

  Conjugate gradient optimiser to be used

  Lower half triangular hessian to be used

  Start of bulk optimisation :

  **** Optimisation achieved ****

  Final energy =    -428.06161895 eV
  Final Gnorm  =       0.00026012

  Components of energy :

  Interatomic potentials     =           0.00000000 eV
  Brenner potentials         =        -428.06161895 eV
  Monopole - monopole (real) =           0.00000000 eV
  Monopole - monopole (recip)=           0.00000000 eV
  Monopole - monopole (total)=           0.00000000 eV
  Total lattice energy       =        -428.06161895 eV
  Total lattice energy       =          -41301.4027 kJ/(mole unit cells)

  Final fractional coordinates of atoms :

   No.  Atomic        x           y          z          Radius
        Label       (Frac)      (Frac)     (Frac)       (Angs)
     1  C     c     0.025100    0.587150    0.365320    0.000000
     2  C     c     0.260339    0.101737    0.106295    0.000000
     3  C     c     0.099904    0.439735    0.266884    0.000000
     4  C     c     0.879183    0.967225    0.452556    0.000000
     5  C     c     0.478135    0.915238    0.989029    0.000000
     6  C     c     0.785548    0.448525    0.221774    0.000000
     7  C     c     0.918592    0.633019    0.717801    0.000000
     8  C     c     0.810406    0.550264    0.588940    0.000000
     9  C     c     0.132847    0.380317    0.639937    0.000000
    10  C     c     0.406107    0.763012    0.117148    0.000000
    11  C     c     0.887922    0.253285    0.745622    0.000000
    12  C     c     0.572951    0.894273    0.556711    0.000000
    13  C     c     0.425217    0.240507    0.631659    0.000000
    14  C     c     0.203075    0.981398    0.797243    0.000000
    15  C     c     0.521266    0.607133    0.405653    0.000000
    16  C     c     0.989195    0.936744    0.118633    0.000000
    17  C     c     0.139817    0.819960    0.858172    0.000000
    18  C     c     0.350391    0.687481    0.663367    0.000000
    19  C     c     0.737056    0.381481    0.682882    0.000000
    20  C     c     0.042791    0.260581    0.264264    0.000000
    21  C     c     0.936016    0.174946    0.420012    0.000000
    22  C     c     0.844002    0.613841    0.415184    0.000000
    23  C     c     0.481597    0.814386    0.688810    0.000000
    24  C     c     0.794156    0.299303    0.329104    0.000000
    25  C     c     0.667907    0.156932    0.013926    0.000000
    26  C     c     0.520466    0.603367    0.088377    0.000000
    27  C     c     0.604830    0.280268    0.570552    0.000000
    28  C     c     0.635764    0.986400    0.117287    0.000000
    29  C     c     0.481549    0.915226    0.248943    0.000000
    30  C     c     0.340464    0.054995    0.922948    0.000000
    31  C     c     0.808668    0.109688    0.881573    0.000000
    32  C     c     0.861030    0.761825    0.836955    0.000000
    33  C     c     0.307780    0.395214    0.577832    0.000000
    34  C     c     0.228937    0.686884    0.123432    0.000000
    35  C     c     0.071160    0.511970    0.778636    0.000000
    36  C     c     0.325627    0.103229    0.507837    0.000000
    37  C     c     0.118026    0.742132    0.424062    0.000000
    38  C     c     0.542666    0.313143    0.956274    0.000000
    39  C     c     0.061662    0.132670    0.107584    0.000000
    40  C     c     0.768613    0.938821    0.795474    0.000000
    41  C     c     0.393024    0.556809    0.534686    0.000000
    42  C     c     0.067513    0.897668    0.497595    0.000000
    43  C     c     0.997356    0.428876    0.953911    0.000000
    44  C     c     0.240221    0.501358    0.158372    0.000000
    45  C     c     0.199280    0.670146    0.769356    0.000000
    46  C     c     0.889357    0.518337    0.081370    0.000000
    47  C     c     0.802383    0.860287    0.153295    0.000000
    48  C     c     0.981594    0.222551    0.947451    0.000000
    49  C     c     0.776407    0.804077    0.348804    0.000000
    50  C     c     0.819109    0.698049    0.025023    0.000000
    51  C     c     0.159335    0.041336    0.606940    0.000000
    52  C     c     0.478349    0.263112    0.275783    0.000000
    53  C     c     0.435056    0.400267    0.123187    0.000000
    54  C     c     0.367925    0.086270    0.290585    0.000000
    55  C     c     0.624432    0.267079    0.391952    0.000000
    56  C     c     0.423124    0.208945    0.831561    0.000000
    57  C     c     0.643676    0.453529    0.849840    0.000000
    58  C     c     0.738077    0.962310    0.601845    0.000000
    59  C     c     0.103251    0.802713    0.042749    0.000000
    60  C     c     0.616099    0.535374    0.253991    0.000000
    61  C     c     0.573989    0.806709    0.388044    0.000000
    62  C     c     0.027096    0.210124    0.603226    0.000000
    63  C     c     0.639423    0.638576    0.932351    0.000000
    64  C     c     0.588410    0.821930    0.852290    0.000000

  Final internal derivatives :

   No.  Atomic          a             b             c           Radius
        Label          (eV)          (eV)          (eV)        (eV/Angs)
      1 C     c       0.000000      0.000000      0.000000      0.000000
      2 C     c       0.000601      0.006288     -0.001115      0.000000
      3 C     c       0.003865      0.001508     -0.000955      0.000000
      4 C     c       0.001714      0.004482      0.002316      0.000000
      5 C     c       0.003030      0.005909      0.004334      0.000000
      6 C     c       0.003042      0.004761      0.002234      0.000000
      7 C     c       0.001221      0.004424      0.003610      0.000000
      8 C     c       0.002136      0.007204      0.002933      0.000000
      9 C     c       0.000040      0.001958      0.002623      0.000000
     10 C     c       0.001045      0.002898      0.002443      0.000000
     11 C     c       0.002221      0.000458      0.001371      0.000000
     12 C     c       0.002139      0.005601      0.001900      0.000000
     13 C     c       0.001250      0.005903      0.000651      0.000000
     14 C     c       0.000941      0.006122      0.003310      0.000000
     15 C     c       0.004026      0.005982      0.002671      0.000000
     16 C     c       0.002893      0.002568      0.002338      0.000000
     17 C     c       0.001640      0.004928      0.002389      0.000000
     18 C     c       0.001768      0.005071      0.004119      0.000000
     19 C     c      -0.000678      0.009418      0.000744      0.000000
     20 C     c       0.000290      0.000272     -0.001509      0.000000
     21 C     c       0.001703      0.003488      0.002100      0.000000
     22 C     c       0.004309      0.002489      0.003653      0.000000
     23 C     c       0.002611      0.003812      0.002543      0.000000
     24 C     c       0.002138      0.003785      0.000984      0.000000
     25 C     c       0.001356      0.005849      0.004522      0.000000
     26 C     c       0.001426      0.006052      0.001094      0.000000
     27 C     c       0.001349      0.002984      0.001204      0.000000
     28 C     c       0.006120      0.005231      0.004127      0.000000
     29 C     c       0.002730      0.005846      0.003966      0.000000
     30 C     c       0.001108      0.003575      0.003592      0.000000
     31 C     c       0.002279      0.006447     -0.000190      0.000000
     32 C     c       0.003694      0.005881      0.001955      0.000000
     33 C     c       0.000573      0.002358      0.002574      0.000000
     34 C     c       0.000215      0.004558      0.003903      0.000000
     35 C     c       0.000830      0.002603      0.001779      0.000000
     36 C     c       0.002162      0.006303      0.005197      0.000000
     37 C     c       0.000938      0.000648      0.002740      0.000000
     38 C     c       0.003675      0.004343      0.003968      0.000000
     39 C     c       0.001303      0.003057      0.005458      0.000000
     40 C     c       0.002287      0.005519      0.000108      0.000000
     41 C     c       0.002729      0.003919      0.003565      0.000000
     42 C     c       0.002779      0.003465     -0.000685      0.000000
     43 C     c       0.000567      0.003558      0.004646      0.000000
     44 C     c      -0.001194      0.008661      0.003746      0.000000
     45 C     c       0.000560      0.003969      0.002379      0.000000
     46 C     c       0.003760      0.002109      0.003449      0.000000
     47 C     c      -0.001844      0.007742      0.000860      0.000000
     48 C     c       0.004954      0.004553      0.005501      0.000000
     49 C     c       0.002535      0.005170      0.002756      0.000000
     50 C     c       0.003654      0.001234      0.001067      0.000000
     51 C     c       0.002607      0.002375      0.001217      0.000000
     52 C     c       0.005197      0.005987      0.004495      0.000000
     53 C     c      -0.001162      0.000833     -0.000987      0.000000
     54 C     c       0.001834      0.002382      0.002626      0.000000
     55 C     c       0.004305      0.005635      0.002344      0.000000
     56 C     c       0.001966      0.006292      0.003110      0.000000
     57 C     c       0.002297      0.004429      0.004098      0.000000
     58 C     c       0.003183      0.005195      0.000631      0.000000
     59 C     c       0.002108      0.004692      0.002405      0.000000
     60 C     c       0.003078      0.005499      0.003206      0.000000
     61 C     c       0.001345      0.005737      0.002485      0.000000
     62 C     c       0.000012      0.006350      0.003782      0.000000
     63 C     c       0.001347      0.003553      0.004252      0.000000
     64 C     c       0.001151      0.005652      0.001226      0.000000
  Maximum abs         0.006120      0.009418      0.005501      0.000000

  Time to end of optimisation =       2.5110 seconds

  Timing analysis for GULP :

  Task / Subroutine                                          Time (Seconds)
  Calculation of Brenner energy and derivatives                   2.4476
  Calculation of matrix inversion                                 0.0001

  CIF file written as opti_1.0200.cif

  Job Finished at 23:38.27 10th August     2020