  Job Started  at 18:03.00 19th April      2021

  Number of CPUs =    12

  Host name      = p1

  Total number of configurations input =      1

*  Input for Configuration =   1                                               *

  Formula = C512

  Number of irreducible atoms/shells =     512

  Total number atoms/shells =     512

  Dimensionality = 3               :  Bulk

  Cartesian lattice vectors (Angstroms) :

       14.786361    0.000000    0.000000
        0.000000   14.786361    0.000000
        0.000000    0.000000   14.786361

  Cell parameters (Angstroms/Degrees):

  a =      14.7864    alpha =  90.0000
  b =      14.7864    beta  =  90.0000
  c =      14.7864    gamma =  90.0000

  Initial cell volume =        3232.837797 Angs**3

  Temperature of configuration =  0.000     K

  Pressure of configuration =         0.000 GPa

  Fractional coordinates of asymmetric unit :

   No.  Atomic       x           y          z         Charge      Occupancy
        Label      (Frac)      (Frac)     (Frac)        (e)         (Frac)
      1 C     c    0.308751    0.396857    0.174292     0.00000    1.000000
      2 C     c    0.924358    0.014678    0.698932     0.00000    1.000000
      3 C     c    0.823331    0.279699    0.213940     0.00000    1.000000
      4 C     c    0.335829    0.536529    0.053872     0.00000    1.000000
      5 C     c    0.695940    0.971992    0.886902     0.00000    1.000000
      6 C     c    0.271061    0.308532    0.506600     0.00000    1.000000
      7 C     c    0.108669    0.990119    0.318191     0.00000    1.000000
      8 C     c    0.223837    0.965791    0.026299     0.00000    1.000000
      9 C     c    0.870328    0.215999    0.875669     0.00000    1.000000
     10 C     c    0.082131    0.901300    0.130329     0.00000    1.000000
     11 C     c    0.075170    0.603420    0.951939     0.00000    1.000000
     12 C     c    0.402409    0.282560    0.811122     0.00000    1.000000
     13 C     c    0.522450    0.090837    0.116820     0.00000    1.000000
     14 C     c    0.042940    0.488910    0.821238     0.00000    1.000000
     15 C     c    0.082110    0.147159    0.410820     0.00000    1.000000
     16 C     c    0.071799    0.553580    0.659768     0.00000    1.000000
     17 C     c    0.884970    0.135248    0.408790     0.00000    1.000000
     18 C     c    0.832691    0.459192    0.977921     0.00000    1.000000
     19 C     c    0.604309    0.341120    0.145839     0.00000    1.000000
     20 C     c    0.690111    0.878251    0.313651     0.00000    1.000000
     21 C     c    0.930181    0.813968    0.307209     0.00000    1.000000
     22 C     c    0.843830    0.490820    0.590500     0.00000    1.000000
     23 C     c    0.531260    0.766158    0.033761     0.00000    1.000000
     24 C     c    0.654279    0.785808    0.745071     0.00000    1.000000
     25 C     c    0.813012    0.044889    0.275551     0.00000    1.000000
     26 C     c    0.267281    0.038721    0.464501     0.00000    1.000000
     27 C     c    0.866909    0.868068    0.533481     0.00000    1.000000
     28 C     c    0.363680    0.516078    0.662941     0.00000    1.000000
     29 C     c    0.442232    0.803389    0.896887     0.00000    1.000000
     30 C     c    0.187550    0.015270    0.775040     0.00000    1.000000
     31 C     c    0.866800    0.156691    0.968382     0.00000    1.000000
     32 C     c    0.766988    0.739699    0.380799     0.00000    1.000000
     33 C     c    0.995250    0.043512    0.619619     0.00000    1.000000
     34 C     c    0.019361    0.174391    0.819720     0.00000    1.000000
     35 C     c    0.806001    0.590450    0.751240     0.00000    1.000000
     36 C     c    0.942500    0.074178    0.133430     0.00000    1.000000
     37 C     c    0.213232    0.086820    0.640989     0.00000    1.000000
     38 C     c    0.770101    0.842132    0.863151     0.00000    1.000000
     39 C     c    0.539352    0.935732    0.163280     0.00000    1.000000
     40 C     c    0.544809    0.088560    0.816270     0.00000    1.000000
     41 C     c    0.588861    0.015188    0.889691     0.00000    1.000000
     42 C     c    0.107371    0.109041    0.206799     0.00000    1.000000
     43 C     c    0.270651    0.649731    0.296410     0.00000    1.000000
     44 C     c    0.612248    0.471539    0.464419     0.00000    1.000000
     45 C     c    0.134899    0.193430    0.473319     0.00000    1.000000
     46 C     c    0.601914    0.303816    0.324459     0.00000    1.000000
     47 C     c    0.970630    0.370949    0.284702     0.00000    1.000000
     48 C     c    0.442201    0.480361    0.421411     0.00000    1.000000
     49 C     c    0.785498    0.751640    0.064019     0.00000    1.000000
     50 C     c    0.592701    0.458802    0.603729     0.00000    1.000000
     51 C     c    0.096050    0.870081    0.882790     0.00000    1.000000
     52 C     c    0.690804    0.355571    0.329063     0.00000    1.000000
     53 C     c    0.702681    0.692330    0.310639     0.00000    1.000000
     54 C     c    0.196670    0.904111    0.619978     0.00000    1.000000
     55 C     c    0.716700    0.423132    0.836992     0.00000    1.000000
     56 C     c    0.142149    0.451989    0.211202     0.00000    1.000000
     57 C     c    0.111100    0.431809    0.977652     0.00000    1.000000
     58 C     c    0.488779    0.612510    0.504011     0.00000    1.000000
     59 C     c    0.756290    0.457701    0.202509     0.00000    1.000000
     60 C     c    0.226361    0.187528    0.362481     0.00000    1.000000
[...]
    498 C     c    0.417248    0.220609    0.439220     0.00000    1.000000
    499 C     c    0.213122    0.615620    0.458689     0.00000    1.000000
    500 C     c    0.101240    0.475352    0.489604     0.00000    1.000000
    501 C     c    0.788836    0.701171    0.477790     0.00000    1.000000
    502 C     c    0.911931    0.900312    0.707629     0.00000    1.000000
    503 C     c    0.323080    0.408039    0.280571     0.00000    1.000000
    504 C     c    0.154909    0.209960    0.286300     0.00000    1.000000
    505 C     c    0.946911    0.084098    0.951040     0.00000    1.000000
    506 C     c    0.805990    0.453999    0.686158     0.00000    1.000000
    507 C     c    0.397910    0.713289    0.673440     0.00000    1.000000
    508 C     c    0.179840    0.858860    0.406711     0.00000    1.000000
    509 C     c    0.043110    0.880590    0.606239     0.00000    1.000000
    510 C     c    0.231300    0.301351    0.801890     0.00000    1.000000
    511 C     c    0.872840    0.589510    0.561099     0.00000    1.000000
    512 C     c    0.089070    0.037610    0.417460     0.00000    1.000000

  Brillouin zone sampling points :

  Point number          x          y          z            Weight
        1           0.500000   0.000000   0.500000     0.00714286
        2           0.473684   0.000000   0.500000     0.00714286
        3           0.447368   0.000000   0.500000     0.00714286
        4           0.421053   0.000000   0.500000     0.00714286
        5           0.394737   0.000000   0.500000     0.00714286
        6           0.368421   0.000000   0.500000     0.00714286
        7           0.342105   0.000000   0.500000     0.00714286
        8           0.315789   0.000000   0.500000     0.00714286
        9           0.289474   0.000000   0.500000     0.00714286
       10           0.263158   0.000000   0.500000     0.00714286
       11           0.236842   0.000000   0.500000     0.00714286
       12           0.210526   0.000000   0.500000     0.00714286
       13           0.184211   0.000000   0.500000     0.00714286
       14           0.157895   0.000000   0.500000     0.00714286
       15           0.131579   0.000000   0.500000     0.00714286
       16           0.105263   0.000000   0.500000     0.00714286
       17           0.078947   0.000000   0.500000     0.00714286
       18           0.052632   0.000000   0.500000     0.00714286
       19           0.026316   0.000000   0.500000     0.00714286
       20           0.000000   0.000000   0.500000     0.00714286
       21           0.000000   0.000000   0.500000     0.00714286
       22           0.000000   0.000000   0.473684     0.00714286
       23           0.000000   0.000000   0.447368     0.00714286
       24           0.000000   0.000000   0.421053     0.00714286
       25           0.000000   0.000000   0.394737     0.00714286
       26           0.000000   0.000000   0.368421     0.00714286
       27           0.000000   0.000000   0.342105     0.00714286
       28           0.000000   0.000000   0.315789     0.00714286
       29           0.000000   0.000000   0.289474     0.00714286
       30           0.000000   0.000000   0.263158     0.00714286
       31           0.000000   0.000000   0.236842     0.00714286
       32           0.000000   0.000000   0.210526     0.00714286
       33           0.000000   0.000000   0.184211     0.00714286
       34           0.000000   0.000000   0.157895     0.00714286
       35           0.000000   0.000000   0.131579     0.00714286
       36           0.000000   0.000000   0.105263     0.00714286
       37           0.000000   0.000000   0.078947     0.00714286
       38           0.000000   0.000000   0.052632     0.00714286
       39           0.000000   0.000000   0.026316     0.00714286
       40           0.000000   0.000000   0.000000     0.00714286
       41           0.000000   0.000000   0.000000     0.00714286
       42           0.026316   0.000000   0.000000     0.00714286
       43           0.052632   0.000000   0.000000     0.00714286
       44           0.078947   0.000000   0.000000     0.00714286
       45           0.105263   0.000000   0.000000     0.00714286
       46           0.131579   0.000000   0.000000     0.00714286
       47           0.157895   0.000000   0.000000     0.00714286
       48           0.184211   0.000000   0.000000     0.00714286
       49           0.210526   0.000000   0.000000     0.00714286
       50           0.236842   0.000000   0.000000     0.00714286
       51           0.263158   0.000000   0.000000     0.00714286
       52           0.289474   0.000000   0.000000     0.00714286
       53           0.315789   0.000000   0.000000     0.00714286
       54           0.342105   0.000000   0.000000     0.00714286
       55           0.368421   0.000000   0.000000     0.00714286
       56           0.394737   0.000000   0.000000     0.00714286
       57           0.421053   0.000000   0.000000     0.00714286
       58           0.447368   0.000000   0.000000     0.00714286
       59           0.473684   0.000000   0.000000     0.00714286
       60           0.500000   0.000000   0.000000     0.00714286
[...]
      126           0.000000   0.500000   0.368421     0.00714286
      127           0.000000   0.500000   0.342105     0.00714286
      128           0.000000   0.500000   0.315789     0.00714286
      129           0.000000   0.500000   0.289474     0.00714286
      130           0.000000   0.500000   0.263158     0.00714286
[...]
  495.42  497.06  497.54  497.98  499.37  499.82  500.74  501.71  502.58
  504.26  504.80  505.56  506.81  507.05  507.77  509.86  510.42  510.82
  512.65  514.09  514.42  514.59  516.24  516.85  517.39  519.20  520.14
  521.10  521.28  521.97  523.14  523.96  524.86  525.16  526.11  527.14
  528.00  529.01  530.08  530.25  532.57  533.07  534.11  534.76  535.46
  536.00  537.70  538.28  539.53  540.09  541.18  542.45  543.43  543.84
  544.45  545.55  546.60  547.42  548.09  549.17  550.05  550.50  551.97
  552.91  553.26  553.97  554.95  556.29  557.29  558.06  558.31  559.35
  560.89  561.58  562.22  563.18  563.93  565.68  566.33  567.09  568.06
  568.45  569.32  569.71  570.20  571.88  572.85  574.11  575.26  576.87
  577.40  577.92  579.21  579.60  580.45  581.60  582.24  583.17  584.08
  584.44  584.59  585.76  587.80  588.73  589.11  590.38  591.26  592.08
  592.62  593.84  594.69  595.51  596.39  597.03  597.82  598.72  599.64
  601.57  602.80  603.09  603.77  603.96  605.43  605.88  606.74  607.75
  609.51  609.79  610.48  611.92  612.22  613.02  614.81  615.27  616.02
  617.25  617.53  619.90  620.29  620.85  621.89  622.29  622.96  624.82
  625.14  626.39  627.05  627.68  628.48  628.99  629.79  632.00  632.33
  633.02  633.72  634.01  635.00  636.50  636.65  638.47  639.02  639.35
  640.17  641.42  642.99  643.76  644.67  645.51  646.09  647.74  648.15
  648.64  649.67  651.14  651.45  652.85  653.39  654.80  655.22  656.81
  657.56  658.68  659.80  660.50  660.94  661.12  662.80  663.82  665.42
  666.31  666.49  667.49  668.61  669.15  670.18  670.98  671.98  672.56
  673.22  673.75  676.03  676.18  676.64  678.63  679.43  681.03  681.25
  682.83  684.42  684.58  685.00  685.39  686.23  687.00  687.14  689.30
  689.88  691.01  692.00  693.30  694.31  695.40  697.09  697.67  698.26
  699.04  700.03  701.55  701.99  703.10  703.30  704.66  705.73  706.07
  707.92  708.48  709.27  709.84  710.78  711.43  712.46  713.05  714.57
  714.91  716.76  716.82  717.81  719.49  720.39  721.07  721.36  723.52
[...]
 1832.46 1844.57 1847.58 1863.94 1875.22 1900.47 1903.35 1925.42 1940.34
 1950.46 1971.58 1972.47 1973.84 1975.05 1985.91 1990.99 1994.18 2009.69
 2019.08 2034.26 2046.24 2048.91 2048.96 2060.02 2070.67 2095.93 2099.62
 2119.10 2122.61 2125.43 2140.43 2159.90 2163.52 2172.85 2174.48 2185.20
 2188.86 2190.22 2197.97 2203.33 2220.38 2222.19 2226.63 2235.75 2251.68
 2279.31 2283.78 2374.49 2378.88 2379.31 2382.36 2389.11 2424.72 2431.70
 2455.29 2502.58 2503.41 2504.84 2513.54 2537.64 2547.01 2561.36 2592.81
 2615.51 2628.74 2629.08 2629.42 2635.71 2651.83 2655.47 2662.22 2666.77
 2678.50 2710.98 2738.61 2746.86 2747.74 2751.83 2755.42 2778.70 2791.48
 2831.37 2835.35 2848.24 2850.28 2854.53 2856.56 2862.17 2892.35 2894.96
 2899.80 2901.92 2948.17 2953.36 2966.60 2970.69 2974.50 2981.32 2989.44
 2998.55 3005.68 3013.02 3014.19 3021.30 3024.68 3030.89 3040.02 3041.48
 3044.91 3046.49 3051.45 3065.25 3096.55 3099.66 3150.45 3160.76 3237.27
 3254.72 3259.45 3261.71 3271.34 3296.91 3300.60 3309.96 3313.74 3316.53
 3404.00 3478.76 3483.97 3490.79 3548.63 3875.84

  Phonon properties (per mole of unit cells): Temperature =      0.000 K
  Zero point energy            =       97.101814 eV

  Phonon dispersion curves :

  Section number =   1
  Frequency (cm-1) Phonon dispersion
  3730.40   |  *  *  *  *  *  *  *  *  *  *  *  *  *  *  *  *  *  *  *  *
  3574.97   |
  3419.54   |  *  *  *  *  *  *  *  *  *  *  *  *  *  *  *  *  *  *  *  *
  3264.10   |  *  *  *  *  *  *  *  *  *  *  *  *  *  *  *  *  *  *  *  *
  3108.67   |  *  *  *  *  *  *  *  *  *  *  *  *  *  *  *  *  *  *  *  *
  2953.24   |  *  *  *  *  *  *  *  *  *  *  *  *  *  *  *  *  *  *  *  *
  2797.80   |  *  *  *  *  *  *  *  *  *  *  *  *  *  *  *  *  *  *  *  *
  2642.37   |  *  *  *  *  *  *  *  *  *  *  *  *  *  *  *  *  *  *  *  *
  2486.94   |  *  *  *  *  *  *  *  *  *  *  *  *  *  *  *  *  *  *  *  *
  2331.50   |  *  *  *  *  *  *  *  *  *  *  *  *  *  *  *  *  *  *  *  *
  2176.07   |  *  *  *  *  *  *  *  *  *  *  *  *  *  *  *  *  *  *  *  *
  2020.64   |  *  *  *  *  *  *  *  *  *  *  *  *  *  *  *  *  *  *  *  *
  1865.20   |  *  *  *  *  *  *  *  *  *  *  *  *  *  *  *  *  *  *  *  *
  1709.77   |  *  *  *  *  *  *  *  *  *  *  *  *  *  *  *  *  *  *  *  *
  1554.34   |  *  *  *  *  *  *  *  *  *  *  *  *  *  *  *  *  *  *  *  *
  1398.90   |  *  *  *  *  *  *  *  *  *  *  *  *  *  *  *  *  *  *  *  *
  1243.47   |  *  *  *  *  *  *  *  *  *  *  *  *  *  *  *  *  *  *  *  *
  1088.03   |  *  *  *  *  *  *  *  *  *  *  *  *  *  *  *  *  *  *  *  *
   932.60   |  *  *  *  *  *  *  *  *  *  *  *  *  *  *  *  *  *  *  *  *
   777.17   |  *  *  *  *  *  *  *  *  *  *  *  *  *  *  *  *  *  *  *  *
   621.73   |  *  *  *  *  *  *  *  *  *  *  *  *  *  *  *  *  *  *  *  *
   466.30   |  *  *  *  *  *  *  *  *  *  *  *  *  *  *  *  *  *  *  *  *
   310.87   |  *  *  *  *  *  *  *  *  *  *  *  *  *  *  *  *  *  *  *  *
   155.43   |  *  *  *  *  *  *  *  *  *  *  *  *  *  *  *  *  *  *  *  *
     0.00   |  *  *  *  *  *  *  *  *  *  *  *  *  *  *  *  *  *  *  *  *
  Section number =   2
  Frequency (cm-1) Phonon dispersion
  3730.40   |  *  *  *  *  *  *  *  *  *  *  *  *  *  *  *  *  *  *  *  *
  3574.97   |
  3419.54   |  *  *  *  *  *  *  *  *  *  *  *  *  *  *  *  *  *  *  *  *
  3264.10   |  *  *  *  *  *  *  *  *  *  *  *  *  *  *  *  *  *  *  *  *
  3108.67   |  *  *  *  *  *  *  *  *  *  *  *  *  *  *  *  *  *  *  *  *
  2953.24   |  *  *  *  *  *  *  *  *  *  *  *  *  *  *  *  *  *  *  *  *
  2797.80   |  *  *  *  *  *  *  *  *  *  *  *  *  *  *  *  *  *  *  *  *
  2642.37   |  *  *  *  *  *  *  *  *  *  *  *  *  *  *  *  *  *  *  *  *
  2486.94   |  *  *  *  *  *  *  *  *  *  *  *  *  *  *  *  *  *  *  *  *
  2331.50   |  *  *  *  *  *  *  *  *  *  *  *  *  *  *  *  *  *  *  *  *
  2176.07   |  *  *  *  *  *  *  *  *  *  *  *  *  *  *  *  *  *  *  *  *
  2020.64   |  *  *  *  *  *  *  *  *  *  *  *  *  *  *  *  *  *  *  *  *
  1865.20   |  *  *  *  *  *  *  *  *  *  *  *  *  *  *  *  *  *  *  *  *
  1709.77   |  *  *  *  *  *  *  *  *  *  *  *  *  *  *  *  *  *  *  *  *
  1554.34   |  *  *  *  *  *  *  *  *  *  *  *  *  *  *  *  *  *  *  *  *
  1398.90   |  *  *  *  *  *  *  *  *  *  *  *  *  *  *  *  *  *  *  *  *
  1243.47   |  *  *  *  *  *  *  *  *  *  *  *  *  *  *  *  *  *  *  *  *
  1088.03   |  *  *  *  *  *  *  *  *  *  *  *  *  *  *  *  *  *  *  *  *
   932.60   |  *  *  *  *  *  *  *  *  *  *  *  *  *  *  *  *  *  *  *  *
   777.17   |  *  *  *  *  *  *  *  *  *  *  *  *  *  *  *  *  *  *  *  *
   621.73   |  *  *  *  *  *  *  *  *  *  *  *  *  *  *  *  *  *  *  *  *
   466.30   |  *  *  *  *  *  *  *  *  *  *  *  *  *  *  *  *  *  *  *  *
   310.87   |  *  *  *  *  *  *  *  *  *  *  *  *  *  *  *  *  *  *  *  *
   155.43   |  *  *  *  *  *  *  *  *  *  *  *  *  *  *  *  *  *  *  *  *
     0.00   |  *  *  *  *  *  *  *  *  *  *  *  *  *  *  *  *  *  *  *  *
  Section number =   3
  Frequency (cm-1) Phonon dispersion
  3730.40   |  *  *  *  *  *  *  *  *  *  *  *  *  *  *  *  *  *  *  *  *
  3574.97   |
  3419.54   |  *  *  *  *  *  *  *  *  *  *  *  *  *  *  *  *  *  *  *  *
  3264.10   |  *  *  *  *  *  *  *  *  *  *  *  *  *  *  *  *  *  *  *  *
  3108.67   |  *  *  *  *  *  *  *  *  *  *  *  *  *  *  *  *  *  *  *  *
  2953.24   |  *  *  *  *  *  *  *  *  *  *  *  *  *  *  *  *  *  *  *  *
  2797.80   |  *  *  *  *  *  *  *  *  *  *  *  *  *  *  *  *  *  *  *  *
  2642.37   |  *  *  *  *  *  *  *  *  *  *  *  *  *  *  *  *  *  *  *  *
  2486.94   |  *  *  *  *  *  *  *  *  *  *  *  *  *  *  *  *  *  *  *  *
  2331.50   |  *  *  *  *  *  *  *  *  *  *  *  *  *  *  *  *  *  *  *  *
  2176.07   |  *  *  *  *  *  *  *  *  *  *  *  *  *  *  *  *  *  *  *  *
  2020.64   |  *  *  *  *  *  *  *  *  *  *  *  *  *  *  *  *  *  *  *  *
  1865.20   |  *  *  *  *  *  *  *  *  *  *  *  *  *  *  *  *  *  *  *  *
  1709.77   |  *  *  *  *  *  *  *  *  *  *  *  *  *  *  *  *  *  *  *  *
  1554.34   |  *  *  *  *  *  *  *  *  *  *  *  *  *  *  *  *  *  *  *  *
  1398.90   |  *  *  *  *  *  *  *  *  *  *  *  *  *  *  *  *  *  *  *  *
  1243.47   |  *  *  *  *  *  *  *  *  *  *  *  *  *  *  *  *  *  *  *  *
  1088.03   |  *  *  *  *  *  *  *  *  *  *  *  *  *  *  *  *  *  *  *  *
   932.60   |  *  *  *  *  *  *  *  *  *  *  *  *  *  *  *  *  *  *  *  *
   777.17   |  *  *  *  *  *  *  *  *  *  *  *  *  *  *  *  *  *  *  *  *
   621.73   |  *  *  *  *  *  *  *  *  *  *  *  *  *  *  *  *  *  *  *  *
   466.30   |  *  *  *  *  *  *  *  *  *  *  *  *  *  *  *  *  *  *  *  *
   310.87   |  *  *  *  *  *  *  *  *  *  *  *  *  *  *  *  *  *  *  *  *
   155.43   |  *  *  *  *  *  *  *  *  *  *  *  *  *  *  *  *  *  *  *  *
     0.00   |  *  *  *  *  *  *  *  *  *  *  *  *  *  *  *  *  *  *  *  *
  Section number =   4
  Frequency (cm-1) Phonon dispersion
  3730.40   |  *  *  *  *  *  *  *  *  *  *  *  *  *  *  *  *  *  *  *  *
  3574.97   |
  3419.54   |  *  *  *  *  *  *  *  *  *  *  *  *  *  *  *  *  *  *  *  *
  3264.10   |  *  *  *  *  *  *  *  *  *  *  *  *  *  *  *  *  *  *  *  *
  3108.67   |  *  *  *  *  *  *  *  *  *  *  *  *  *  *  *  *  *  *  *  *
  2953.24   |  *  *  *  *  *  *  *  *  *  *  *  *  *  *  *  *  *  *  *  *
  2797.80   |  *  *  *  *  *  *  *  *  *  *  *  *  *  *  *  *  *  *  *  *
  2642.37   |  *  *  *  *  *  *  *  *  *  *  *  *  *  *  *  *  *  *  *  *
  2486.94   |  *  *  *  *  *  *  *  *  *  *  *  *  *  *  *  *  *  *  *  *
  2331.50   |  *  *  *  *  *  *  *  *  *  *  *  *  *  *  *  *  *  *  *  *
  2176.07   |  *  *  *  *  *  *  *  *  *  *  *  *  *  *  *  *  *  *  *  *
  2020.64   |  *  *  *  *  *  *  *  *  *  *  *  *  *  *  *  *  *  *  *  *
  1865.20   |  *  *  *  *  *  *  *  *  *  *  *  *  *  *  *  *  *  *  *  *
  1709.77   |  *  *  *  *  *  *  *  *  *  *  *  *  *  *  *  *  *  *  *  *
  1554.34   |  *  *  *  *  *  *  *  *  *  *  *  *  *  *  *  *  *  *  *  *
  1398.90   |  *  *  *  *  *  *  *  *  *  *  *  *  *  *  *  *  *  *  *  *
  1243.47   |  *  *  *  *  *  *  *  *  *  *  *  *  *  *  *  *  *  *  *  *
  1088.03   |  *  *  *  *  *  *  *  *  *  *  *  *  *  *  *  *  *  *  *  *
   932.60   |  *  *  *  *  *  *  *  *  *  *  *  *  *  *  *  *  *  *  *  *
   777.17   |  *  *  *  *  *  *  *  *  *  *  *  *  *  *  *  *  *  *  *  *
   621.73   |  *  *  *  *  *  *  *  *  *  *  *  *  *  *  *  *  *  *  *  *
   466.30   |  *  *  *  *  *  *  *  *  *  *  *  *  *  *  *  *  *  *  *  *
   310.87   |  *  *  *  *  *  *  *  *  *  *  *  *  *  *  *  *  *  *  *  *
   155.43   |  *  *  *  *  *  *  *  *  *  *  *  *  *  *  *  *  *  *  *  *
     0.00   |  *  *  *  *  *  *  *  *  *  *  *  *  *  *  *  *  *  *  *  *
  Section number =   5
  Frequency (cm-1) Phonon dispersion
  3730.40   |  *  *  *  *  *  *  *  *  *  *  *  *  *  *  *  *  *  *  *  *
  3574.97   |
  3419.54   |  *  *  *  *  *  *  *  *  *  *  *  *  *  *  *  *  *  *  *  *
  3264.10   |  *  *  *  *  *  *  *  *  *  *  *  *  *  *  *  *  *  *  *  *
  3108.67   |  *  *  *  *  *  *  *  *  *  *  *  *  *  *  *  *  *  *  *  *
  2953.24   |  *  *  *  *  *  *  *  *  *  *  *  *  *  *  *  *  *  *  *  *
  2797.80   |  *  *  *  *  *  *  *  *  *  *  *  *  *  *  *  *  *  *  *  *
  2642.37   |  *  *  *  *  *  *  *  *  *  *  *  *  *  *  *  *  *  *  *  *
  2486.94   |  *  *  *  *  *  *  *  *  *  *  *  *  *  *  *  *  *  *  *  *
  2331.50   |  *  *  *  *  *  *  *  *  *  *  *  *  *  *  *  *  *  *  *  *
  2176.07   |  *  *  *  *  *  *  *  *  *  *  *  *  *  *  *  *  *  *  *  *
  2020.64   |  *  *  *  *  *  *  *  *  *  *  *  *  *  *  *  *  *  *  *  *
  1865.20   |  *  *  *  *  *  *  *  *  *  *  *  *  *  *  *  *  *  *  *  *
  1709.77   |  *  *  *  *  *  *  *  *  *  *  *  *  *  *  *  *  *  *  *  *
  1554.34   |  *  *  *  *  *  *  *  *  *  *  *  *  *  *  *  *  *  *  *  *
  1398.90   |  *  *  *  *  *  *  *  *  *  *  *  *  *  *  *  *  *  *  *  *
  1243.47   |  *  *  *  *  *  *  *  *  *  *  *  *  *  *  *  *  *  *  *  *
  1088.03   |  *  *  *  *  *  *  *  *  *  *  *  *  *  *  *  *  *  *  *  *
   932.60   |  *  *  *  *  *  *  *  *  *  *  *  *  *  *  *  *  *  *  *  *
   777.17   |  *  *  *  *  *  *  *  *  *  *  *  *  *  *  *  *  *  *  *  *
   621.73   |  *  *  *  *  *  *  *  *  *  *  *  *  *  *  *  *  *  *  *  *
   466.30   |  *  *  *  *  *  *  *  *  *  *  *  *  *  *  *  *  *  *  *  *
   310.87   |  *  *  *  *  *  *  *  *  *  *  *  *  *  *  *  *  *  *  *  *
   155.43   |  *  *  *  *  *  *  *  *  *  *  *  *  *  *  *  *  *  *  *  *
     0.00   |  *  *  *  *  *  *  *  *  *  *  *  *  *  *  *  *  *  *  *  *
  Section number =   6
  Frequency (cm-1) Phonon dispersion
  3730.40   |  *  *  *  *  *  *  *  *  *  *  *  *  *  *  *  *  *  *  *  *
  3574.97   |
  3419.54   |  *  *  *  *  *  *  *  *  *  *  *  *  *  *  *  *  *  *  *  *
  3264.10   |  *  *  *  *  *  *  *  *  *  *  *  *  *  *  *  *  *  *  *  *
  3108.67   |  *  *  *  *  *  *  *  *  *  *  *  *  *  *  *  *  *  *  *  *
  2953.24   |  *  *  *  *  *  *  *  *  *  *  *  *  *  *  *  *  *  *  *  *
  2797.80   |  *  *  *  *  *  *  *  *  *  *  *  *  *  *  *  *  *  *  *  *
  2642.37   |  *  *  *  *  *  *  *  *  *  *  *  *  *  *  *  *  *  *  *  *
  2486.94   |  *  *  *  *  *  *  *  *  *  *  *  *  *  *  *  *  *  *  *  *
  2331.50   |  *  *  *  *  *  *  *  *  *  *  *  *  *  *  *  *  *  *  *  *
  2176.07   |  *  *  *  *  *  *  *  *  *  *  *  *  *  *  *  *  *  *  *  *
  2020.64   |  *  *  *  *  *  *  *  *  *  *  *  *  *  *  *  *  *  *  *  *
  1865.20   |  *  *  *  *  *  *  *  *  *  *  *  *  *  *  *  *  *  *  *  *
  1709.77   |  *  *  *  *  *  *  *  *  *  *  *  *  *  *  *  *  *  *  *  *
  1554.34   |  *  *  *  *  *  *  *  *  *  *  *  *  *  *  *  *  *  *  *  *
  1398.90   |  *  *  *  *  *  *  *  *  *  *  *  *  *  *  *  *  *  *  *  *
  1243.47   |  *  *  *  *  *  *  *  *  *  *  *  *  *  *  *  *  *  *  *  *
  1088.03   |  *  *  *  *  *  *  *  *  *  *  *  *  *  *  *  *  *  *  *  *
   932.60   |  *  *  *  *  *  *  *  *  *  *  *  *  *  *  *  *  *  *  *  *
   777.17   |  *  *  *  *  *  *  *  *  *  *  *  *  *  *  *  *  *  *  *  *
   621.73   |  *  *  *  *  *  *  *  *  *  *  *  *  *  *  *  *  *  *  *  *
   466.30   |  *  *  *  *  *  *  *  *  *  *  *  *  *  *  *  *  *  *  *  *
   310.87   |  *  *  *  *  *  *  *  *  *  *  *  *  *  *  *  *  *  *  *  *
   155.43   |  *  *  *  *  *  *  *  *  *  *  *  *  *  *  *  *  *  *  *  *
     0.00   |  *  *  *  *  *  *  *  *  *  *  *  *  *  *  *  *  *  *  *  *
  Section number =   7
  Frequency (cm-1) Phonon dispersion
  3730.40   |  *  *  *  *  *  *  *  *  *  *  *  *  *  *  *  *  *  *  *  *
  3574.97   |
  3419.54   |  *  *  *  *  *  *  *  *  *  *  *  *  *  *  *  *  *  *  *  *
  3264.10   |  *  *  *  *  *  *  *  *  *  *  *  *  *  *  *  *  *  *  *  *
  3108.67   |  *  *  *  *  *  *  *  *  *  *  *  *  *  *  *  *  *  *  *  *
  2953.24   |  *  *  *  *  *  *  *  *  *  *  *  *  *  *  *  *  *  *  *  *
  2797.80   |  *  *  *  *  *  *  *  *  *  *  *  *  *  *  *  *  *  *  *  *
  2642.37   |  *  *  *  *  *  *  *  *  *  *  *  *  *  *  *  *  *  *  *  *
  2486.94   |  *  *  *  *  *  *  *  *  *  *  *  *  *  *  *  *  *  *  *  *
  2331.50   |  *  *  *  *  *  *  *  *  *  *  *  *  *  *  *  *  *  *  *  *
  2176.07   |  *  *  *  *  *  *  *  *  *  *  *  *  *  *  *  *  *  *  *  *
  2020.64   |  *  *  *  *  *  *  *  *  *  *  *  *  *  *  *  *  *  *  *  *
  1865.20   |  *  *  *  *  *  *  *  *  *  *  *  *  *  *  *  *  *  *  *  *
  1709.77   |  *  *  *  *  *  *  *  *  *  *  *  *  *  *  *  *  *  *  *  *
  1554.34   |  *  *  *  *  *  *  *  *  *  *  *  *  *  *  *  *  *  *  *  *
  1398.90   |  *  *  *  *  *  *  *  *  *  *  *  *  *  *  *  *  *  *  *  *
  1243.47   |  *  *  *  *  *  *  *  *  *  *  *  *  *  *  *  *  *  *  *  *
  1088.03   |  *  *  *  *  *  *  *  *  *  *  *  *  *  *  *  *  *  *  *  *
   932.60   |  *  *  *  *  *  *  *  *  *  *  *  *  *  *  *  *  *  *  *  *
   777.17   |  *  *  *  *  *  *  *  *  *  *  *  *  *  *  *  *  *  *  *  *
   621.73   |  *  *  *  *  *  *  *  *  *  *  *  *  *  *  *  *  *  *  *  *
   466.30   |  *  *  *  *  *  *  *  *  *  *  *  *  *  *  *  *  *  *  *  *
   310.87   |  *  *  *  *  *  *  *  *  *  *  *  *  *  *  *  *  *  *  *  *
   155.43   |  *  *  *  *  *  *  *  *  *  *  *  *  *  *  *  *  *  *  *  *
     0.00   |  *  *  *  *  *  *  *  *  *  *  *  *  *  *  *  *  *  *  *  *

  Phonon dispersion written as 20sp2.disp

  Time to end of properties =     988.9908 seconds

  Timing analysis for GULP :

  Task / Subroutine                                          Time (Seconds)
  Calculation of real space energy and derivatives                0.0696
  Calculation of Brenner energy and derivatives                 865.3669
  Calculation of phonons                                        980.9187
  Global summation overhead                                       0.8769

  Job Finished at 18:19.29 19th April      2021