  Job Started  at 09:35.21 31st July       2020

  Number of CPUs =     1

  Total number of configurations input =      1

*  Input for Configuration =   1                                               *

  Formula = C8

  Number of irreducible atoms/shells =       8

  Total number atoms/shells =       8

  Dimensionality = 3               :  Bulk

  Cartesian lattice vectors (Angstroms) :

        3.552100    0.000000    0.000000
        0.000000    3.552100    0.000000
        0.000000    0.000000    3.552100

  Cell parameters (Angstroms/Degrees):

  a =       3.5521    alpha =  90.0000
  b =       3.5521    beta  =  90.0000
  c =       3.5521    gamma =  90.0000

  Initial cell volume =          44.818318 Angs**3

  Shrinking factors =      8     8     8

  Temperature of configuration =   10.0     K

  Pressure of configuration =         0.000 GPa

  Fractional coordinates of asymmetric unit :

   No.  Atomic       x           y          z         Charge      Occupancy
        Label      (Frac)      (Frac)     (Frac)        (e)         (Frac)
      1 C     c    0.000000    0.000000    0.000000     0.00000    1.000000
      2 C     c    0.000000    0.500000    0.500000     0.00000    1.000000
      3 C     c    0.500000    0.500000    0.000000     0.00000    1.000000
      4 C     c    0.500000    0.000000    0.500000     0.00000    1.000000
      5 C     c    0.750000    0.250000    0.750000     0.00000    1.000000
      6 C     c    0.250000    0.250000    0.250000     0.00000    1.000000
      7 C     c    0.250000    0.750000    0.750000     0.00000    1.000000
      8 C     c    0.750000    0.750000    0.250000     0.00000    1.000000

  Brillouin zone sampling points :

  Point number          x          y          z            Weight
        1           0.062500   0.062500   0.062500     0.00390625
        2           0.062500   0.062500   0.187500     0.00390625
        3           0.062500   0.062500   0.312500     0.00390625
        4           0.062500   0.062500   0.437500     0.00390625
        5           0.062500   0.062500   0.562500     0.00390625
        6           0.062500   0.062500   0.687500     0.00390625
        7           0.062500   0.062500   0.812500     0.00390625
        8           0.062500   0.062500   0.937500     0.00390625
        9           0.062500   0.187500   0.062500     0.00390625
       10           0.062500   0.187500   0.187500     0.00390625
       11           0.062500   0.187500   0.312500     0.00390625
       12           0.062500   0.187500   0.437500     0.00390625
       13           0.062500   0.187500   0.562500     0.00390625
       14           0.062500   0.187500   0.687500     0.00390625
       15           0.062500   0.187500   0.812500     0.00390625
       16           0.062500   0.187500   0.937500     0.00390625
       17           0.062500   0.312500   0.062500     0.00390625
       18           0.062500   0.312500   0.187500     0.00390625
       19           0.062500   0.312500   0.312500     0.00390625
       20           0.062500   0.312500   0.437500     0.00390625
       21           0.062500   0.312500   0.562500     0.00390625
       22           0.062500   0.312500   0.687500     0.00390625
       23           0.062500   0.312500   0.812500     0.00390625
       24           0.062500   0.312500   0.937500     0.00390625
       25           0.062500   0.437500   0.062500     0.00390625
       26           0.062500   0.437500   0.187500     0.00390625
       27           0.062500   0.437500   0.312500     0.00390625
       28           0.062500   0.437500   0.437500     0.00390625
       29           0.062500   0.437500   0.562500     0.00390625
       30           0.062500   0.437500   0.687500     0.00390625
       31           0.062500   0.437500   0.812500     0.00390625
       32           0.062500   0.437500   0.937500     0.00390625
       33           0.062500   0.562500   0.062500     0.00390625
       34           0.062500   0.562500   0.187500     0.00390625
       35           0.062500   0.562500   0.312500     0.00390625
       36           0.062500   0.562500   0.437500     0.00390625
       37           0.062500   0.562500   0.562500     0.00390625
       38           0.062500   0.562500   0.687500     0.00390625
       39           0.062500   0.562500   0.812500     0.00390625
       40           0.062500   0.562500   0.937500     0.00390625
       41           0.062500   0.687500   0.062500     0.00390625
       42           0.062500   0.687500   0.187500     0.00390625
       43           0.062500   0.687500   0.312500     0.00390625
       44           0.062500   0.687500   0.437500     0.00390625
       45           0.062500   0.687500   0.562500     0.00390625
       46           0.062500   0.687500   0.687500     0.00390625
       47           0.062500   0.687500   0.812500     0.00390625
       48           0.062500   0.687500   0.937500     0.00390625
       49           0.062500   0.812500   0.062500     0.00390625
       50           0.062500   0.812500   0.187500     0.00390625
       51           0.062500   0.812500   0.312500     0.00390625
       52           0.062500   0.812500   0.437500     0.00390625
       53           0.062500   0.812500   0.562500     0.00390625
       54           0.062500   0.812500   0.687500     0.00390625
       55           0.062500   0.812500   0.812500     0.00390625
       56           0.062500   0.812500   0.937500     0.00390625
       57           0.062500   0.937500   0.062500     0.00390625
       58           0.062500   0.937500   0.187500     0.00390625
       59           0.062500   0.937500   0.312500     0.00390625
       60           0.062500   0.937500   0.437500     0.00390625
[...]
      242           0.437500   0.812500   0.187500     0.00390625
      243           0.437500   0.812500   0.312500     0.00390625
      244           0.437500   0.812500   0.437500     0.00390625
      245           0.437500   0.812500   0.562500     0.00390625
      246           0.437500   0.812500   0.687500     0.00390625
      247           0.437500   0.812500   0.812500     0.00390625
      248           0.437500   0.812500   0.937500     0.00390625
      249           0.437500   0.937500   0.062500     0.00390625
      250           0.437500   0.937500   0.187500     0.00390625
      251           0.437500   0.937500   0.312500     0.00390625
      252           0.437500   0.937500   0.437500     0.00390625
      253           0.437500   0.937500   0.562500     0.00390625
      254           0.437500   0.937500   0.687500     0.00390625
      255           0.437500   0.937500   0.812500     0.00390625
      256           0.437500   0.937500   0.937500     0.00390625

*  General input information                                                   *

  Species output for all configurations :

  Species    Type    Atomic    Atomic    Charge       Radii (Angs)     Library
                     Number     Mass       (e)     Cova   Ionic  VDW   Symbol
    C        Core        6      12.01   0.000000   0.770  0.000  1.530

  Lattice summation method               =    Ewald          (3-D)
                                         =    Parry          (2-D)
                                         =    Saunders et al (1-D)
  Accuracy factor for lattice sums       =   12.000

  Analytic derivatives to be used

  Time limit = Infinity

  Maximum range for interatomic potentials =    100000.000000 Angstroms

  Brenner et al 2002 potential to be used with explicit splines for P

*  Output for configuration   1                                                *

  Components of energy :

  Interatomic potentials     =           0.00000000 eV
  Brenner potentials         =         -58.94954283 eV
  Monopole - monopole (real) =           0.00000000 eV
  Monopole - monopole (recip)=           0.00000000 eV
  Monopole - monopole (total)=           0.00000000 eV
  Total lattice energy       =         -58.94954283 eV
  Total lattice energy       =           -5687.7298 kJ/(mole unit cells)

  Elastic Constant Matrix: (Units=GPa)

  Indices      1         2         3         4         5         6
       1   1108.0651  137.8621  137.8621    0.0000    0.0000    0.0000
       2    137.8621 1108.0651  137.8621    0.0000    0.0000    0.0000
       3    137.8621  137.8621 1108.0651    0.0000    0.0000    0.0000
       4      0.0000    0.0000    0.0000  744.5390   -0.0000   -0.0000
       5      0.0000    0.0000    0.0000   -0.0000  744.5390   -0.0000
       6      0.0000    0.0000    0.0000   -0.0000   -0.0000  744.5390

  Elastic Compliance Matrix: (Units=1/GPa)

  Indices      1         2         3         4         5         6
       1    0.000928 -0.000103 -0.000103 -0.000000 -0.000000 -0.000000
       2   -0.000103  0.000928 -0.000103 -0.000000 -0.000000 -0.000000
       3   -0.000103 -0.000103  0.000928 -0.000000 -0.000000 -0.000000
       4   -0.000000 -0.000000 -0.000000  0.001343  0.000000  0.000000
       5   -0.000000 -0.000000 -0.000000  0.000000  0.001343  0.000000
       6   -0.000000 -0.000000 -0.000000  0.000000  0.000000  0.001343

  Mechanical properties :

  Convention :                    Reuss         Voigt         Hill
  Bulk  Modulus (GPa)     =     461.26309     461.26309     461.26309
  Shear Modulus (GPa)     =     613.33230     640.76398     627.04814
  Velocity S-wave (km/s)  =      13.12596      13.41629      13.27192
  Velocity P-wave (km/s)  =      18.95506      19.22417      19.09009
  Compressibility (1/GPa) =    0.00216796
  Stress axis :                     x             y             z
  Youngs Moduli (GPa)     =    1077.55613    1077.55613    1077.55613
  Poissons Ratio (x)      =                     0.11065       0.11065
  Poissons Ratio (y)      =       0.11065                     0.11065
  Poissons Ratio (z)      =       0.11065       0.11065

  Piezoelectric Strain Matrix: (Units=C/m**2)

  Indices      1         2         3         4         5         6
       x    -0.00000  -0.00000  -0.00000  -0.00000  -0.00000  -0.00000
       y    -0.00000  -0.00000  -0.00000  -0.00000  -0.00000  -0.00000
       z    -0.00000  -0.00000  -0.00000  -0.00000  -0.00000  -0.00000

  Piezoelectric Stress Matrix: (Units=10**-11 C/N)

  Indices      1         2         3         4         5         6
       x     0.00000   0.00000   0.00000   0.00000   0.00000   0.00000
       y     0.00000   0.00000   0.00000   0.00000   0.00000   0.00000
       z     0.00000   0.00000   0.00000   0.00000   0.00000   0.00000

  Static dielectric constant tensor :

              x         y         z
       x     1.00000   0.00000   0.00000
       y     0.00000   1.00000   0.00000
       z     0.00000   0.00000   1.00000

  Static refractive indices :

    1 =    1.00000      2 =    1.00000      3 =    1.00000

  Phonon Calculation :

  Number of k points for this configuration =      256

  K point      1 =   0.062500  0.062500  0.062500  Weight =    0.004

  Frequencies (cm-1) [NB: Negative implies an imaginary mode]:

[...]

  K point    256 =   0.437500  0.937500  0.937500  Weight =    0.004

  Frequencies (cm-1) [NB: Negative implies an imaginary mode]:

[...]
  Uvib        (equipartition)  =        0.124090 eV
  Mean kinetic energy          =        0.867998 eV
  Heat capacity - const volume =        0.000003 eV/K
                               =        0.246604 J/(mol.K)
  Phonon properties (per mole of unit cells): Temperature =     70.000 K
  Zero point energy            =        1.735960 eV
  Entropy                      =        0.000001 eV/K
                               =        0.121432 J/(mol.K)
  Helmholtz free-energy        =      -57.213602 eV
                               =    -5520.237506 kJmol-1
  Free energy (equipartition)  =      -58.496717 eV
  - T*S       (equipartition)  =        0.308054 eV
  Uvib        (equipartition)  =        0.144771 eV
  Mean kinetic energy          =        0.868015 eV
  Heat capacity - const volume =        0.000004 eV/K
                               =        0.396757 J/(mol.K)
  Phonon properties (per mole of unit cells): Temperature =     80.000 K
  Zero point energy            =        1.735960 eV
  Entropy                      =        0.000002 eV/K
                               =        0.187087 J/(mol.K)
  Helmholtz free-energy        =      -57.213618 eV
                               =    -5520.239034 kJmol-1
  Free energy (equipartition)  =      -58.454121 eV
  - T*S       (equipartition)  =        0.329969 eV
  Uvib        (equipartition)  =        0.165453 eV
  Mean kinetic energy          =        0.868040 eV
  Heat capacity - const volume =        0.000006 eV/K
                               =        0.601131 J/(mol.K)
  Phonon properties (per mole of unit cells): Temperature =     90.000 K
  Zero point energy            =        1.735960 eV
  Entropy                      =        0.000003 eV/K
                               =        0.272795 J/(mol.K)
  Helmholtz free-energy        =      -57.213641 eV
                               =    -5520.241315 kJmol-1
  Free energy (equipartition)  =      -58.414117 eV
  - T*S       (equipartition)  =        0.349292 eV
  Uvib        (equipartition)  =        0.186134 eV
  Mean kinetic energy          =        0.868078 eV
  Heat capacity - const volume =        0.000009 eV/K
                               =        0.871594 J/(mol.K)
  Phonon properties (per mole of unit cells): Temperature =    100.000 K
  Zero point energy            =        1.735960 eV
  Entropy                      =        0.000004 eV/K
                               =        0.381969 J/(mol.K)
  Helmholtz free-energy        =      -57.213675 eV
                               =    -5520.244568 kJmol-1
  Free energy (equipartition)  =      -58.376415 eV
  - T*S       (equipartition)  =        0.366312 eV
  Uvib        (equipartition)  =        0.206816 eV
  Mean kinetic energy          =        0.868132 eV
  Heat capacity - const volume =        0.000013 eV/K
                               =        1.221264 J/(mol.K)
  Phonon properties (per mole of unit cells): Temperature =    110.000 K
  Zero point energy            =        1.735960 eV
  Entropy                      =        0.000005 eV/K
                               =        0.518333 J/(mol.K)
  Helmholtz free-energy        =      -57.213721 eV
                               =    -5520.249045 kJmol-1
  Free energy (equipartition)  =      -58.340785 eV
  - T*S       (equipartition)  =        0.381260 eV
  Uvib        (equipartition)  =        0.227498 eV
  Mean kinetic energy          =        0.868206 eV
  Heat capacity - const volume =        0.000017 eV/K
                               =        1.663866 J/(mol.K)
  Phonon properties (per mole of unit cells): Temperature =    120.000 K
  Zero point energy            =        1.735960 eV
  Entropy                      =        0.000007 eV/K
                               =        0.685826 J/(mol.K)
  Helmholtz free-energy        =      -57.213784 eV
                               =    -5520.255038 kJmol-1
  Free energy (equipartition)  =      -58.307038 eV
  - T*S       (equipartition)  =        0.394325 eV
  Uvib        (equipartition)  =        0.248179 eV
  Mean kinetic energy          =        0.868306 eV
  Heat capacity - const volume =        0.000023 eV/K
                               =        2.212768 J/(mol.K)
  Phonon properties (per mole of unit cells): Temperature =    130.000 K
  Zero point energy            =        1.735960 eV
  Entropy                      =        0.000009 eV/K
                               =        0.888465 J/(mol.K)
  Helmholtz free-energy        =      -57.213865 eV
                               =    -5520.262879 kJmol-1
  Free energy (equipartition)  =      -58.275016 eV
  - T*S       (equipartition)  =        0.405665 eV
  Uvib        (equipartition)  =        0.268861 eV
  Mean kinetic energy          =        0.868438 eV
  Heat capacity - const volume =        0.000030 eV/K
                               =        2.880033 J/(mol.K)
  Phonon properties (per mole of unit cells): Temperature =    140.000 K
  Zero point energy            =        1.735960 eV
  Entropy                      =        0.000012 eV/K
                               =        1.130198 J/(mol.K)
  Helmholtz free-energy        =      -57.213969 eV
                               =    -5520.272938 kJmol-1
  Free energy (equipartition)  =      -58.244587 eV
  - T*S       (equipartition)  =        0.415413 eV
  Uvib        (equipartition)  =        0.289542 eV
  Mean kinetic energy          =        0.868607 eV
  Heat capacity - const volume =        0.000038 eV/K
                               =        3.675709 J/(mol.K)
  Phonon properties (per mole of unit cells): Temperature =    150.000 K
  Zero point energy            =        1.735960 eV
  Entropy                      =        0.000015 eV/K
                               =        1.414768 J/(mol.K)
  Helmholtz free-energy        =      -57.214101 eV
                               =    -5520.285625 kJmol-1
  Free energy (equipartition)  =      -58.215636 eV
  - T*S       (equipartition)  =        0.423682 eV
  Uvib        (equipartition)  =        0.310224 eV
  Mean kinetic energy          =        0.868821 eV
  Heat capacity - const volume =        0.000048 eV/K
                               =        4.607441 J/(mol.K)
  Phonon properties (per mole of unit cells): Temperature =    160.000 K
  Zero point energy            =        1.735960 eV
  Entropy                      =        0.000018 eV/K
                               =        1.745607 J/(mol.K)
  Helmholtz free-energy        =      -57.214264 eV
                               =    -5520.301387 kJmol-1
  Free energy (equipartition)  =      -58.188066 eV
  - T*S       (equipartition)  =        0.430572 eV
  Uvib        (equipartition)  =        0.330906 eV
  Mean kinetic energy          =        0.869087 eV
  Heat capacity - const volume =        0.000059 eV/K
                               =        5.680361 J/(mol.K)
  Phonon properties (per mole of unit cells): Temperature =    170.000 K
  Zero point energy            =        1.735960 eV
  Entropy                      =        0.000022 eV/K
                               =        2.125758 J/(mol.K)
  Helmholtz free-energy        =      -57.214464 eV
                               =    -5520.320702 kJmol-1
  Free energy (equipartition)  =      -58.161788 eV
  - T*S       (equipartition)  =        0.436167 eV
  Uvib        (equipartition)  =        0.351587 eV
  Mean kinetic energy          =        0.869412 eV
  Heat capacity - const volume =        0.000071 eV/K
                               =        6.897173 J/(mol.K)
  Phonon properties (per mole of unit cells): Temperature =    180.000 K
  Zero point energy            =        1.735960 eV
  Entropy                      =        0.000027 eV/K
                               =        2.557835 J/(mol.K)
  Helmholtz free-energy        =      -57.214706 eV
                               =    -5520.344076 kJmol-1
  Free energy (equipartition)  =      -58.136728 eV
  - T*S       (equipartition)  =        0.440546 eV
  Uvib        (equipartition)  =        0.372269 eV
  Mean kinetic energy          =        0.869804 eV
  Heat capacity - const volume =        0.000086 eV/K
                               =        8.258351 J/(mol.K)
  Phonon properties (per mole of unit cells): Temperature =    190.000 K
  Zero point energy            =        1.735960 eV
  Entropy                      =        0.000032 eV/K
                               =        3.043996 J/(mol.K)
  Helmholtz free-energy        =      -57.214996 eV
                               =    -5520.372039 kJmol-1
  Free energy (equipartition)  =      -58.112817 eV
  - T*S       (equipartition)  =        0.443775 eV
  Uvib        (equipartition)  =        0.392951 eV
  Mean kinetic energy          =        0.870270 eV
  Heat capacity - const volume =        0.000101 eV/K
                               =        9.762385 J/(mol.K)
  Phonon properties (per mole of unit cells): Temperature =    200.000 K
  Zero point energy            =        1.735960 eV
  Entropy                      =        0.000037 eV/K
                               =        3.585947 J/(mol.K)
  Helmholtz free-energy        =      -57.215339 eV
                               =    -5520.405142 kJmol-1
  Free energy (equipartition)  =      -58.089996 eV
  - T*S       (equipartition)  =        0.445915 eV
  Uvib        (equipartition)  =        0.413632 eV
  Mean kinetic energy          =        0.870818 eV
  Heat capacity - const volume =        0.000118 eV/K
                               =       11.406031 J/(mol.K)
  Phonon properties (per mole of unit cells): Temperature =    210.000 K
  Zero point energy            =        1.735960 eV
  Entropy                      =        0.000043 eV/K
                               =        4.184947 J/(mol.K)
  Helmholtz free-energy        =      -57.215741 eV
                               =    -5520.443948 kJmol-1
  Free energy (equipartition)  =      -58.068208 eV
  - T*S       (equipartition)  =        0.447021 eV
  Uvib        (equipartition)  =        0.434314 eV
  Mean kinetic energy          =        0.871455 eV
  Heat capacity - const volume =        0.000137 eV/K
                               =       13.184553 J/(mol.K)
  Phonon properties (per mole of unit cells): Temperature =    220.000 K
  Zero point energy            =        1.735960 eV
  Entropy                      =        0.000050 eV/K
                               =        4.841828 J/(mol.K)
  Helmholtz free-energy        =      -57.216209 eV
                               =    -5520.489034 kJmol-1
  Free energy (equipartition)  =      -58.047407 eV
  - T*S       (equipartition)  =        0.447141 eV
  Uvib        (equipartition)  =        0.454995 eV
  Mean kinetic energy          =        0.872187 eV
  Heat capacity - const volume =        0.000156 eV/K
                               =       15.091944 J/(mol.K)
  Phonon properties (per mole of unit cells): Temperature =    230.000 K
  Zero point energy            =        1.735960 eV
  Entropy                      =        0.000058 eV/K
                               =        5.557021 J/(mol.K)
  Helmholtz free-energy        =      -57.216747 eV
                               =    -5520.540979 kJmol-1
  Free energy (equipartition)  =      -58.027545 eV
  - T*S       (equipartition)  =        0.446321 eV
  Uvib        (equipartition)  =        0.475677 eV
  Mean kinetic energy          =        0.873021 eV
  Heat capacity - const volume =        0.000177 eV/K
                               =       17.121140 J/(mol.K)
  Phonon properties (per mole of unit cells): Temperature =    240.000 K
  Zero point energy            =        1.735960 eV
  Entropy                      =        0.000066 eV/K
                               =        6.330582 J/(mol.K)
  Helmholtz free-energy        =      -57.217363 eV
                               =    -5520.600369 kJmol-1
  Free energy (equipartition)  =      -58.008583 eV
  - T*S       (equipartition)  =        0.444601 eV
  Uvib        (equipartition)  =        0.496359 eV
  Mean kinetic energy          =        0.873964 eV
  Heat capacity - const volume =        0.000200 eV/K
                               =       19.264212 J/(mol.K)
  Phonon properties (per mole of unit cells): Temperature =    250.000 K
  Zero point energy            =        1.735960 eV
  Entropy                      =        0.000074 eV/K
                               =        7.162221 J/(mol.K)
  Helmholtz free-energy        =      -57.218061 eV
                               =    -5520.667784 kJmol-1
  Free energy (equipartition)  =      -57.990483 eV
  - T*S       (equipartition)  =        0.442020 eV
  Uvib        (equipartition)  =        0.517040 eV
  Mean kinetic energy          =        0.875020 eV
  Heat capacity - const volume =        0.000223 eV/K
                               =       21.512553 J/(mol.K)
  Phonon properties (per mole of unit cells): Temperature =    260.000 K
  Zero point energy            =        1.735960 eV
  Entropy                      =        0.000083 eV/K
                               =        8.051336 J/(mol.K)
  Helmholtz free-energy        =      -57.218849 eV
                               =    -5520.743805 kJmol-1
  Free energy (equipartition)  =      -57.973210 eV
  - T*S       (equipartition)  =        0.438611 eV
  Uvib        (equipartition)  =        0.537722 eV
  Mean kinetic energy          =        0.876195 eV
  Heat capacity - const volume =        0.000247 eV/K
                               =       23.857051 J/(mol.K)
  Phonon properties (per mole of unit cells): Temperature =    270.000 K
  Zero point energy            =        1.735960 eV
  Entropy                      =        0.000093 eV/K
                               =        8.997040 J/(mol.K)
  Helmholtz free-energy        =      -57.219732 eV
                               =    -5520.829000 kJmol-1
  Free energy (equipartition)  =      -57.956733 eV
  - T*S       (equipartition)  =        0.434406 eV
  Uvib        (equipartition)  =        0.558403 eV
  Mean kinetic energy          =        0.877494 eV
  Heat capacity - const volume =        0.000272 eV/K
                               =       26.288257 J/(mol.K)
  Phonon properties (per mole of unit cells): Temperature =    280.000 K
  Zero point energy            =        1.735960 eV
  Entropy                      =        0.000104 eV/K
                               =        9.998196 J/(mol.K)
  Helmholtz free-energy        =      -57.220716 eV
                               =    -5520.923930 kJmol-1
  Free energy (equipartition)  =      -57.941023 eV
  - T*S       (equipartition)  =        0.429435 eV
  Uvib        (equipartition)  =        0.579085 eV
  Mean kinetic energy          =        0.878921 eV
  Heat capacity - const volume =        0.000298 eV/K
                               =       28.796535 J/(mol.K)
  Phonon properties (per mole of unit cells): Temperature =    290.000 K
  Zero point energy            =        1.735960 eV
  Entropy                      =        0.000115 eV/K
                               =       11.053449 J/(mol.K)
  Helmholtz free-energy        =      -57.221807 eV
                               =    -5521.029144 kJmol-1
  Free energy (equipartition)  =      -57.926051 eV
  - T*S       (equipartition)  =        0.423725 eV
  Uvib        (equipartition)  =        0.599767 eV
  Mean kinetic energy          =        0.880480 eV
  Heat capacity - const volume =        0.000325 eV/K
                               =       31.372205 J/(mol.K)
  Phonon properties (per mole of unit cells): Temperature =    300.000 K
  Zero point energy            =        1.735960 eV
  Entropy                      =        0.000126 eV/K
                               =       12.161253 J/(mol.K)
  Helmholtz free-energy        =      -57.223009 eV
                               =    -5521.145174 kJmol-1
  Free energy (equipartition)  =      -57.911792 eV
  - T*S       (equipartition)  =        0.417303 eV
  Uvib        (equipartition)  =        0.620448 eV
  Mean kinetic energy          =        0.882173 eV
  Heat capacity - const volume =        0.000352 eV/K
                               =       34.005667 J/(mol.K)

  Time to end of properties =      16.1508 seconds

  Timing analysis for GULP :

  Task / Subroutine                                          Time (Seconds)
  Calculation of real space energy and derivatives                0.0052
  Calculation of Brenner energy and derivatives                  15.7921
  Calculation of phonons                                         16.0663
  Disk read/write operations to scratch files                     0.0640

  Job Finished at 09:35.37 31st July       2020