  Job Started  at 20:10.09 29th July       2020

  Number of CPUs =     1

  Total number of configurations input =      1

*  Input for Configuration =   1                                               *

  Formula = C64

  Number of irreducible atoms/shells =      64

  Total number atoms/shells =      64

  Dimensionality = 3               :  Bulk

  Cartesian lattice vectors (Angstroms) :

        7.688900    0.000000    0.000000
        0.000000    7.688900    0.000000
        0.000000    0.000000    7.688900

  Cell parameters (Angstroms/Degrees):

  a =       7.6889    alpha =  90.0000
  b =       7.6889    beta  =  90.0000
  c =       7.6889    gamma =  90.0000

  Initial cell volume =         454.561488 Angs**3

  Shrinking factors =      8     8     8

  Temperature of configuration =   10.0     K

  Pressure of configuration =         0.000 GPa

  Fractional coordinates of asymmetric unit :

   No.  Atomic       x           y          z         Charge      Occupancy
        Label      (Frac)      (Frac)     (Frac)        (e)         (Frac)
      1 C     c    0.476040    0.519880    0.065020     0.00000    1.000000
      2 C     c    0.408720    0.736970    0.309200     0.00000    1.000000
      3 C     c    0.290620    0.262370    0.910430     0.00000    1.000000
      4 C     c    0.103910    0.008110    0.617720     0.00000    1.000000
      5 C     c    0.956530    0.855400    0.883530     0.00000    1.000000
      6 C     c    0.795760    0.476400    0.583740     0.00000    1.000000
      7 C     c    0.616450    0.412330    0.680130     0.00000    1.000000
      8 C     c    0.787500    0.713180    0.340000     0.00000    1.000000
      9 C     c    0.884980    0.243000    0.328060     0.00000    1.000000
     10 C     c    0.688840    0.158460    0.143770     0.00000    1.000000
     11 C     c    0.869560    0.035020    0.363250     0.00000    1.000000
     12 C     c    0.950300    0.931500    0.523270     0.00000    1.000000
     13 C     c    0.517190    0.057900    0.152460     0.00000    1.000000
     14 C     c    0.549980    0.978250    0.498480     0.00000    1.000000
     15 C     c    0.469000    0.329450    0.001290     0.00000    1.000000
     16 C     c    0.950390    0.349150    0.489870     0.00000    1.000000
     17 C     c    0.159410    0.419290    0.832510     0.00000    1.000000
     18 C     c    0.829800    0.735200    0.815210     0.00000    1.000000
     19 C     c    0.910880    0.946430    0.039150     0.00000    1.000000
     20 C     c    0.143570    0.915970    0.798790     0.00000    1.000000
     21 C     c    0.869790    0.648280    0.657780     0.00000    1.000000
     22 C     c    0.890390    0.123460    0.729710     0.00000    1.000000
     23 C     c    0.497210    0.596280    0.414040     0.00000    1.000000
     24 C     c    0.651120    0.704770    0.884670     0.00000    1.000000
     25 C     c    0.640630    0.586160    0.027450     0.00000    1.000000
     26 C     c    0.789240    0.975680    0.719470     0.00000    1.000000
     27 C     c    0.474610    0.454540    0.577420     0.00000    1.000000
     28 C     c    0.359520    0.637950    0.141480     0.00000    1.000000
     29 C     c    0.590240    0.953580    0.693710     0.00000    1.000000
     30 C     c    0.716180    0.338670    0.234300     0.00000    1.000000
     31 C     c    0.010640    0.198750    0.156400     0.00000    1.000000
     32 C     c    0.971110    0.393940    0.897490     0.00000    1.000000
     33 C     c    0.503190    0.788670    0.788900     0.00000    1.000000
     34 C     c    0.851280    0.134850    0.037370     0.00000    1.000000
     35 C     c    0.354150    0.176700    0.713280     0.00000    1.000000
     36 C     c    0.114330    0.477480    0.450250     0.00000    1.000000
     37 C     c    0.185690    0.168820    0.082250     0.00000    1.000000
     38 C     c    0.281760    0.397460    0.518240     0.00000    1.000000
     39 C     c    0.100640    0.672430    0.422470     0.00000    1.000000
     40 C     c    0.932900    0.497510    0.039610     0.00000    1.000000
     41 C     c    0.835290    0.243260    0.874360     0.00000    1.000000
     42 C     c    0.377110    0.215120    0.169270     0.00000    1.000000
     43 C     c    0.393380    0.114630    0.510500     0.00000    1.000000
     44 C     c    0.977860    0.710070    0.269030     0.00000    1.000000
     45 C     c    0.396430    0.276940    0.371160     0.00000    1.000000
     46 C     c    0.559800    0.398000    0.340140     0.00000    1.000000
     47 C     c    0.306250    0.764680    0.789760     0.00000    1.000000
     48 C     c    0.923010    0.896030    0.214160     0.00000    1.000000
     49 C     c    0.766700    0.483980    0.107740     0.00000    1.000000
     50 C     c    0.253140    0.803220    0.416430     0.00000    1.000000
     51 C     c    0.703960    0.552370    0.413010     0.00000    1.000000
     52 C     c    0.955260    0.748390    0.535230     0.00000    1.000000
     53 C     c    0.229430    0.605440    0.867380     0.00000    1.000000
     54 C     c    0.040310    0.615760    0.116180     0.00000    1.000000
     55 C     c    0.625650    0.285280    0.848940     0.00000    1.000000
     56 C     c    0.437680    0.015240    0.971350     0.00000    1.000000
     57 C     c    0.519460    0.911360    0.289540     0.00000    1.000000
     58 C     c    0.204420    0.640820    0.050150     0.00000    1.000000
     59 C     c    0.036290    0.208880    0.616270     0.00000    1.000000
     60 C     c    0.255940    0.960330    0.495250     0.00000    1.000000
     61 C     c    0.712750    0.893820    0.373770     0.00000    1.000000
     62 C     c    0.241780    0.011110    0.955590     0.00000    1.000000
     63 C     c    0.515760    0.101210    0.810990     0.00000    1.000000
     64 C     c    0.199260    0.303590    0.671910     0.00000    1.000000

  Brillouin zone sampling points :

  Point number          x          y          z            Weight
        1           0.062500   0.062500   0.062500     0.00390625
        2           0.062500   0.062500   0.187500     0.00390625
        3           0.062500   0.062500   0.312500     0.00390625
        4           0.062500   0.062500   0.437500     0.00390625
        5           0.062500   0.062500   0.562500     0.00390625
        6           0.062500   0.062500   0.687500     0.00390625
        7           0.062500   0.062500   0.812500     0.00390625
        8           0.062500   0.062500   0.937500     0.00390625
        9           0.062500   0.187500   0.062500     0.00390625
       10           0.062500   0.187500   0.187500     0.00390625
       11           0.062500   0.187500   0.312500     0.00390625
       12           0.062500   0.187500   0.437500     0.00390625
       13           0.062500   0.187500   0.562500     0.00390625
       14           0.062500   0.187500   0.687500     0.00390625
       15           0.062500   0.187500   0.812500     0.00390625
       16           0.062500   0.187500   0.937500     0.00390625
       17           0.062500   0.312500   0.062500     0.00390625
       18           0.062500   0.312500   0.187500     0.00390625
       19           0.062500   0.312500   0.312500     0.00390625
       20           0.062500   0.312500   0.437500     0.00390625
       21           0.062500   0.312500   0.562500     0.00390625
       22           0.062500   0.312500   0.687500     0.00390625
       23           0.062500   0.312500   0.812500     0.00390625
       24           0.062500   0.312500   0.937500     0.00390625
       25           0.062500   0.437500   0.062500     0.00390625
       26           0.062500   0.437500   0.187500     0.00390625
       27           0.062500   0.437500   0.312500     0.00390625
       28           0.062500   0.437500   0.437500     0.00390625
       29           0.062500   0.437500   0.562500     0.00390625
       30           0.062500   0.437500   0.687500     0.00390625
       31           0.062500   0.437500   0.812500     0.00390625
       32           0.062500   0.437500   0.937500     0.00390625
       33           0.062500   0.562500   0.062500     0.00390625
       34           0.062500   0.562500   0.187500     0.00390625
       35           0.062500   0.562500   0.312500     0.00390625
       36           0.062500   0.562500   0.437500     0.00390625
       37           0.062500   0.562500   0.562500     0.00390625
       38           0.062500   0.562500   0.687500     0.00390625
       39           0.062500   0.562500   0.812500     0.00390625
       40           0.062500   0.562500   0.937500     0.00390625
       41           0.062500   0.687500   0.062500     0.00390625
       42           0.062500   0.687500   0.187500     0.00390625
       43           0.062500   0.687500   0.312500     0.00390625
       44           0.062500   0.687500   0.437500     0.00390625
       45           0.062500   0.687500   0.562500     0.00390625
       46           0.062500   0.687500   0.687500     0.00390625
       47           0.062500   0.687500   0.812500     0.00390625
       48           0.062500   0.687500   0.937500     0.00390625
       49           0.062500   0.812500   0.062500     0.00390625
       50           0.062500   0.812500   0.187500     0.00390625
       51           0.062500   0.812500   0.312500     0.00390625
       52           0.062500   0.812500   0.437500     0.00390625
       53           0.062500   0.812500   0.562500     0.00390625
       54           0.062500   0.812500   0.687500     0.00390625
       55           0.062500   0.812500   0.812500     0.00390625
       56           0.062500   0.812500   0.937500     0.00390625
       57           0.062500   0.937500   0.062500     0.00390625
       58           0.062500   0.937500   0.187500     0.00390625
       59           0.062500   0.937500   0.312500     0.00390625
       60           0.062500   0.937500   0.437500     0.00390625
[...]
      242           0.437500   0.812500   0.187500     0.00390625
      243           0.437500   0.812500   0.312500     0.00390625
      244           0.437500   0.812500   0.437500     0.00390625
      245           0.437500   0.812500   0.562500     0.00390625
      246           0.437500   0.812500   0.687500     0.00390625
      247           0.437500   0.812500   0.812500     0.00390625
      248           0.437500   0.812500   0.937500     0.00390625
      249           0.437500   0.937500   0.062500     0.00390625
      250           0.437500   0.937500   0.187500     0.00390625
      251           0.437500   0.937500   0.312500     0.00390625
      252           0.437500   0.937500   0.437500     0.00390625
      253           0.437500   0.937500   0.562500     0.00390625
      254           0.437500   0.937500   0.687500     0.00390625
      255           0.437500   0.937500   0.812500     0.00390625
      256           0.437500   0.937500   0.937500     0.00390625

*  General input information                                                   *

  Species output for all configurations :

  Species    Type    Atomic    Atomic    Charge       Radii (Angs)     Library
[...]
  Uvib        (equipartition)  =        0.992717 eV
  Mean kinetic energy          =        5.782507 eV
  Heat capacity - const volume =        0.000295 eV/K
                               =       28.417521 J/(mol.K)
  Phonon properties (per mole of unit cells): Temperature =     70.000 K
  Zero point energy            =       11.560451 eV
  Entropy                      =        0.000156 eV/K
                               =       15.046039 J/(mol.K)
  Helmholtz free-energy        =     -410.251914 eV
                               =   -39583.034989 kJmol-1
  Free energy (equipartition)  =     -418.560990 eV
  - T*S       (equipartition)  =        2.090479 eV
  Uvib        (equipartition)  =        1.158170 eV
  Mean kinetic energy          =        5.784321 eV
  Heat capacity - const volume =        0.000435 eV/K
                               =       41.974766 J/(mol.K)
  Phonon properties (per mole of unit cells): Temperature =     80.000 K
  Zero point energy            =       11.560451 eV
  Entropy                      =        0.000224 eV/K
                               =       21.653288 J/(mol.K)
  Helmholtz free-energy        =     -410.253806 eV
                               =   -39583.217476 kJmol-1
  Free energy (equipartition)  =     -418.273643 eV
  - T*S       (equipartition)  =        2.212374 eV
  Uvib        (equipartition)  =        1.323623 eV
  Mean kinetic energy          =        5.786894 eV
  Heat capacity - const volume =        0.000598 eV/K
                               =       57.662843 J/(mol.K)
  Phonon properties (per mole of unit cells): Temperature =     90.000 K
  Zero point energy            =       11.560451 eV
  Entropy                      =        0.000305 eV/K
                               =       29.438568 J/(mol.K)
  Helmholtz free-energy        =     -410.256443 eV
                               =   -39583.471983 kJmol-1
  Free energy (equipartition)  =     -418.007031 eV
  - T*S       (equipartition)  =        2.313533 eV
  Uvib        (equipartition)  =        1.489076 eV
  Mean kinetic energy          =        5.790328 eV
  Heat capacity - const volume =        0.000779 eV/K
                               =       75.151223 J/(mol.K)
  Phonon properties (per mole of unit cells): Temperature =    100.000 K
  Zero point energy            =       11.560451 eV
  Entropy                      =        0.000397 eV/K
                               =       38.327316 J/(mol.K)
  Helmholtz free-energy        =     -410.259946 eV
                               =   -39583.809926 kJmol-1
  Free energy (equipartition)  =     -417.758841 eV
  - T*S       (equipartition)  =        2.396270 eV
  Uvib        (equipartition)  =        1.654529 eV
  Mean kinetic energy          =        5.794709 eV
  Heat capacity - const volume =        0.000976 eV/K
                               =       94.139034 J/(mol.K)
  Phonon properties (per mole of unit cells): Temperature =    110.000 K
  Zero point energy            =       11.560451 eV
  Entropy                      =        0.000500 eV/K
                               =       48.239299 J/(mol.K)
  Helmholtz free-energy        =     -410.264424 eV
                               =   -39584.241941 kJmol-1
  Free energy (equipartition)  =     -417.527223 eV
  - T*S       (equipartition)  =        2.462435 eV
  Uvib        (equipartition)  =        1.819981 eV
  Mean kinetic energy          =        5.800106 eV
  Heat capacity - const volume =        0.001185 eV/K
                               =      114.362244 J/(mol.K)
  Phonon properties (per mole of unit cells): Temperature =    120.000 K
  Zero point energy            =       11.560451 eV
  Entropy                      =        0.000612 eV/K
                               =       59.093842 J/(mol.K)
  Helmholtz free-energy        =     -410.269978 eV
                               =   -39584.777854 kJmol-1
  Free energy (equipartition)  =     -417.310668 eV
  - T*S       (equipartition)  =        2.513537 eV
  Uvib        (equipartition)  =        1.985434 eV
  Mean kinetic energy          =        5.806579 eV
  Heat capacity - const volume =        0.001405 eV/K
                               =      135.593685 J/(mol.K)
  Phonon properties (per mole of unit cells): Temperature =    130.000 K
  Zero point energy            =       11.560451 eV
  Entropy                      =        0.000734 eV/K
                               =       70.812825 J/(mol.K)
  Helmholtz free-energy        =     -410.276703 eV
                               =   -39585.426698 kJmol-1
  Free energy (equipartition)  =     -417.107917 eV
  - T*S       (equipartition)  =        2.550836 eV
  Uvib        (equipartition)  =        2.150887 eV
  Mean kinetic energy          =        5.814174 eV
  Heat capacity - const volume =        0.001634 eV/K
                               =      157.639949 J/(mol.K)
  Phonon properties (per mole of unit cells): Temperature =    140.000 K
  Zero point energy            =       11.560451 eV
  Entropy                      =        0.000864 eV/K
                               =       83.322268 J/(mol.K)
  Helmholtz free-energy        =     -410.284684 eV
                               =   -39586.196745 kJmol-1
  Free energy (equipartition)  =     -416.917905 eV
  - T*S       (equipartition)  =        2.575394 eV
  Uvib        (equipartition)  =        2.316340 eV
  Mean kinetic energy          =        5.822928 eV
  Heat capacity - const volume =        0.001869 eV/K
                               =      180.337030 J/(mol.K)
  Phonon properties (per mole of unit cells): Temperature =    150.000 K
  Zero point energy            =       11.560451 eV
  Entropy                      =        0.001001 eV/K
                               =       96.553068 J/(mol.K)
  Helmholtz free-energy        =     -410.293999 eV
                               =   -39587.095548 kJmol-1
  Free energy (equipartition)  =     -416.739722 eV
  - T*S       (equipartition)  =        2.588125 eV
  Uvib        (equipartition)  =        2.481793 eV
  Mean kinetic energy          =        5.832873 eV
  Heat capacity - const volume =        0.002110 eV/K
                               =      203.545734 J/(mol.K)
  Phonon properties (per mole of unit cells): Temperature =    160.000 K
  Zero point energy            =       11.560451 eV
  Entropy                      =        0.001145 eV/K
                               =      110.441200 J/(mol.K)
  Helmholtz free-energy        =     -410.304721 eV
                               =   -39588.129997 kJmol-1
  Free energy (equipartition)  =     -416.572576 eV
  - T*S       (equipartition)  =        2.589818 eV
  Uvib        (equipartition)  =        2.647246 eV
  Mean kinetic energy          =        5.844031 eV
  Heat capacity - const volume =        0.002354 eV/K
                               =      227.147346 J/(mol.K)
  Phonon properties (per mole of unit cells): Temperature =    170.000 K
  Zero point energy            =       11.560451 eV
  Entropy                      =        0.001295 eV/K
                               =      124.927606 J/(mol.K)
  Helmholtz free-energy        =     -410.316913 eV
                               =   -39589.306365 kJmol-1
  Free energy (equipartition)  =     -416.415779 eV
  - T*S       (equipartition)  =        2.581162 eV
  Uvib        (equipartition)  =        2.812699 eV
  Mean kinetic energy          =        5.856421 eV
  Heat capacity - const volume =        0.002602 eV/K
                               =      251.039842 J/(mol.K)
  Phonon properties (per mole of unit cells): Temperature =    180.000 K
  Zero point energy            =       11.560451 eV
  Entropy                      =        0.001451 eV/K
                               =      139.957927 J/(mol.K)
  Helmholtz free-energy        =     -410.330635 eV
                               =   -39590.630361 kJmol-1
  Free energy (equipartition)  =     -416.268719 eV
  - T*S       (equipartition)  =        2.562769 eV
  Uvib        (equipartition)  =        2.978151 eV
  Mean kinetic energy          =        5.870054 eV
  Heat capacity - const volume =        0.002852 eV/K
                               =      275.134724 J/(mol.K)
  Phonon properties (per mole of unit cells): Temperature =    190.000 K
  Zero point energy            =       11.560451 eV
  Entropy                      =        0.001611 eV/K
                               =      155.482143 J/(mol.K)
  Helmholtz free-energy        =     -410.345941 eV
                               =   -39592.107170 kJmol-1
  Free energy (equipartition)  =     -416.130856 eV
  - T*S       (equipartition)  =        2.535179 eV
  Uvib        (equipartition)  =        3.143604 eV
  Mean kinetic energy          =        5.884939 eV
  Heat capacity - const volume =        0.003103 eV/K
                               =      299.354477 J/(mol.K)
  Phonon properties (per mole of unit cells): Temperature =    200.000 K
  Zero point energy            =       11.560451 eV
  Entropy                      =        0.001777 eV/K
                               =      171.454194 J/(mol.K)
  Helmholtz free-energy        =     -410.362880 eV
                               =   -39593.741497 kJmol-1
  Free energy (equipartition)  =     -416.001705 eV
  - T*S       (equipartition)  =        2.498877 eV
  Uvib        (equipartition)  =        3.309057 eV
  Mean kinetic energy          =        5.901081 eV
  Heat capacity - const volume =        0.003354 eV/K
                               =      323.630584 J/(mol.K)
  Phonon properties (per mole of unit cells): Temperature =    210.000 K
  Zero point energy            =       11.560451 eV
  Entropy                      =        0.001947 eV/K
                               =      187.831606 J/(mol.K)
  Helmholtz free-energy        =     -410.381496 eV
                               =   -39595.537605 kJmol-1
  Free energy (equipartition)  =     -415.880831 eV
  - T*S       (equipartition)  =        2.454299 eV
  Uvib        (equipartition)  =        3.474510 eV
  Mean kinetic energy          =        5.918481 eV
  Heat capacity - const volume =        0.003606 eV/K
                               =      347.902016 J/(mol.K)
  Phonon properties (per mole of unit cells): Temperature =    220.000 K
  Zero point energy            =       11.560451 eV
  Entropy                      =        0.002120 eV/K
                               =      204.575149 J/(mol.K)
  Helmholtz free-energy        =     -410.401828 eV
                               =   -39597.499349 kJmol-1
  Free energy (equipartition)  =     -415.767837 eV
  - T*S       (equipartition)  =        2.401839 eV
  Uvib        (equipartition)  =        3.639963 eV
  Mean kinetic energy          =        5.937137 eV
  Heat capacity - const volume =        0.003857 eV/K
                               =      372.114110 J/(mol.K)
  Phonon properties (per mole of unit cells): Temperature =    230.000 K
  Zero point energy            =       11.560451 eV
  Entropy                      =        0.002297 eV/K
                               =      221.648519 J/(mol.K)
  Helmholtz free-energy        =     -410.423913 eV
                               =   -39599.630207 kJmol-1
  Free energy (equipartition)  =     -415.662367 eV
  - T*S       (equipartition)  =        2.341856 eV
  Uvib        (equipartition)  =        3.805416 eV
  Mean kinetic energy          =        5.957046 eV
  Heat capacity - const volume =        0.004107 eV/K
                               =      396.217725 J/(mol.K)
  Phonon properties (per mole of unit cells): Temperature =    240.000 K
  Zero point energy            =       11.560451 eV
  Entropy                      =        0.002477 eV/K
                               =      239.018063 J/(mol.K)
  Helmholtz free-energy        =     -410.447783 eV
                               =   -39601.933306 kJmol-1
  Free energy (equipartition)  =     -415.564093 eV
  - T*S       (equipartition)  =        2.274678 eV
  Uvib        (equipartition)  =        3.970868 eV
  Mean kinetic energy          =        5.978200 eV
  Heat capacity - const volume =        0.004355 eV/K
                               =      420.168635 J/(mol.K)
  Phonon properties (per mole of unit cells): Temperature =    250.000 K
  Zero point energy            =       11.560451 eV
  Entropy                      =        0.002660 eV/K
                               =      256.652537 J/(mol.K)
  Helmholtz free-energy        =     -410.473467 eV
                               =   -39604.411451 kJmol-1
  Free energy (equipartition)  =     -415.472715 eV
  - T*S       (equipartition)  =        2.200603 eV
  Uvib        (equipartition)  =        4.136321 eV
  Mean kinetic energy          =        6.000590 eV
  Heat capacity - const volume =        0.004601 eV/K
                               =      443.927070 J/(mol.K)
  Phonon properties (per mole of unit cells): Temperature =    260.000 K
  Zero point energy            =       11.560451 eV
  Entropy                      =        0.002845 eV/K
                               =      274.522894 J/(mol.K)
  Helmholtz free-energy        =     -410.500992 eV
                               =   -39607.067143 kJmol-1
  Free energy (equipartition)  =     -415.387957 eV
  - T*S       (equipartition)  =        2.119908 eV
  Uvib        (equipartition)  =        4.301774 eV
  Mean kinetic energy          =        6.024206 eV
  Heat capacity - const volume =        0.004845 eV/K
                               =      467.457363 J/(mol.K)
  Phonon properties (per mole of unit cells): Temperature =    270.000 K
  Zero point energy            =       11.560451 eV
  Entropy                      =        0.003033 eV/K
                               =      292.602105 J/(mol.K)
  Helmholtz free-energy        =     -410.530379 eV
                               =   -39609.902605 kJmol-1
  Free energy (equipartition)  =     -415.309564 eV
  - T*S       (equipartition)  =        2.032849 eV
  Uvib        (equipartition)  =        4.467227 eV
  Mean kinetic energy          =        6.049035 eV
  Heat capacity - const volume =        0.005086 eV/K
                               =      490.727675 J/(mol.K)
  Phonon properties (per mole of unit cells): Temperature =    280.000 K
  Zero point energy            =       11.560451 eV
  Entropy                      =        0.003222 eV/K
                               =      310.864997 J/(mol.K)
  Helmholtz free-energy        =     -410.561650 eV
                               =   -39612.919797 kJmol-1
  Free energy (equipartition)  =     -415.237300 eV
  - T*S       (equipartition)  =        1.939660 eV
  Uvib        (equipartition)  =        4.632680 eV
  Mean kinetic energy          =        6.075062 eV
  Heat capacity - const volume =        0.005324 eV/K
                               =      513.709755 J/(mol.K)
  Phonon properties (per mole of unit cells): Temperature =    290.000 K
  Zero point energy            =       11.560451 eV
  Entropy                      =        0.003413 eV/K
                               =      329.288115 J/(mol.K)
  Helmholtz free-energy        =     -410.594823 eV
                               =   -39616.120439 kJmol-1
  Free energy (equipartition)  =     -415.170946 eV
  - T*S       (equipartition)  =        1.840561 eV
  Uvib        (equipartition)  =        4.798133 eV
  Mean kinetic energy          =        6.102272 eV
  Heat capacity - const volume =        0.005559 eV/K
                               =      536.378738 J/(mol.K)
  Phonon properties (per mole of unit cells): Temperature =    300.000 K
  Zero point energy            =       11.560451 eV
  Entropy                      =        0.003605 eV/K
                               =      347.849603 J/(mol.K)
  Helmholtz free-energy        =     -410.629912 eV
                               =   -39619.506021 kJmol-1
  Free energy (equipartition)  =     -415.110299 eV
  - T*S       (equipartition)  =        1.735755 eV
  Uvib        (equipartition)  =        4.963586 eV
  Mean kinetic energy          =        6.130648 eV
  Heat capacity - const volume =        0.005791 eV/K
                               =      558.712942 J/(mol.K)

  Time to end of properties =      71.9294 seconds

  Timing analysis for GULP :

  Task / Subroutine                                          Time (Seconds)
  Calculation of real space energy and derivatives                0.0916
  Calculation of Brenner energy and derivatives                  61.3007
  Calculation of phonons                                         71.6358
  Disk read/write operations to scratch files                     0.2597

  Job Finished at 20:11.21 29th July       2020