  Job Started  at 23:34.10 10th August     2020

  Number of CPUs =     1

  Total number of configurations input =      1

*  Input for Configuration =   1                                               *

  Formula = C64

  Number of irreducible atoms/shells =      64

  Total number atoms/shells =      64

  Dimensionality = 3               :  Bulk

  Cartesian lattice vectors (Angstroms) :

        7.557900    0.000000    0.000000
        0.000000    7.557900    0.000000
        0.000000    0.000000    7.557900

  Cell parameters (Angstroms/Degrees):

  a =       7.5579    alpha =  90.0000
  b =       7.5579    beta  =  90.0000
  c =       7.5579    gamma =  90.0000

  Initial cell volume =         431.721248 Angs**3

  Shrinking factors =      8     8     8

  Temperature of configuration =   0.00     K

  Pressure of configuration =         0.000 GPa

  Fractional coordinates of asymmetric unit :

   No.  Atomic       x           y          z         Charge      Occupancy
        Label      (Frac)      (Frac)     (Frac)        (e)         (Frac)
      1 C     c    0.025100    0.587150    0.365320     0.00000    1.000000
      2 C     c    0.262270    0.102290    0.108140     0.00000    1.000000
      3 C     c    0.100170    0.438100    0.267940     0.00000    1.000000
      4 C     c    0.878850    0.966590    0.452840     0.00000    1.000000
      5 C     c    0.476800    0.917680    0.988560     0.00000    1.000000
      6 C     c    0.787280    0.446730    0.219730     0.00000    1.000000
      7 C     c    0.923770    0.638180    0.716840     0.00000    1.000000
      8 C     c    0.810040    0.555200    0.590400     0.00000    1.000000
      9 C     c    0.131550    0.379860    0.638290     0.00000    1.000000
     10 C     c    0.403990    0.764670    0.117520     0.00000    1.000000
     11 C     c    0.889960    0.257510    0.746750     0.00000    1.000000
     12 C     c    0.569250    0.901690    0.557430     0.00000    1.000000
     13 C     c    0.425680    0.240780    0.632490     0.00000    1.000000
     14 C     c    0.199400    0.983990    0.798850     0.00000    1.000000
     15 C     c    0.523390    0.608630    0.406820     0.00000    1.000000
     16 C     c    0.987490    0.938240    0.121760     0.00000    1.000000
     17 C     c    0.133750    0.821630    0.858200     0.00000    1.000000
     18 C     c    0.347250    0.690420    0.662220     0.00000    1.000000
     19 C     c    0.738330    0.384520    0.683440     0.00000    1.000000
     20 C     c    0.047140    0.257520    0.266680     0.00000    1.000000
     21 C     c    0.936030    0.172920    0.419760     0.00000    1.000000
     22 C     c    0.843140    0.616120    0.414820     0.00000    1.000000
     23 C     c    0.477840    0.819680    0.690030     0.00000    1.000000
     24 C     c    0.794060    0.296110    0.326970     0.00000    1.000000
     25 C     c    0.669580    0.161730    0.017950     0.00000    1.000000
     26 C     c    0.520430    0.604760    0.088140     0.00000    1.000000
     27 C     c    0.606270    0.280410    0.571480     0.00000    1.000000
     28 C     c    0.633510    0.989980    0.119300     0.00000    1.000000
     29 C     c    0.478650    0.916090    0.251610     0.00000    1.000000
     30 C     c    0.339180    0.056860    0.923040     0.00000    1.000000
     31 C     c    0.810440    0.113510    0.884560     0.00000    1.000000
     32 C     c    0.869140    0.768380    0.838220     0.00000    1.000000
     33 C     c    0.307390    0.395160    0.575260     0.00000    1.000000
     34 C     c    0.226280    0.686800    0.123360     0.00000    1.000000
     35 C     c    0.071680    0.509560    0.779360     0.00000    1.000000
     36 C     c    0.326250    0.101720    0.509900     0.00000    1.000000
     37 C     c    0.122700    0.740840    0.423800     0.00000    1.000000
     38 C     c    0.542490    0.315130    0.957240     0.00000    1.000000
     39 C     c    0.063710    0.130970    0.109500     0.00000    1.000000
     40 C     c    0.769690    0.942650    0.797000     0.00000    1.000000
     41 C     c    0.392700    0.558330    0.533990     0.00000    1.000000
     42 C     c    0.068220    0.896190    0.498970     0.00000    1.000000
     43 C     c    0.002500    0.428680    0.954940     0.00000    1.000000
     44 C     c    0.238340    0.500250    0.155850     0.00000    1.000000
     45 C     c    0.194950    0.672260    0.767830     0.00000    1.000000
     46 C     c    0.893690    0.519960    0.081890     0.00000    1.000000
     47 C     c    0.799510    0.863420    0.155770     0.00000    1.000000
     48 C     c    0.986540    0.221760    0.949520     0.00000    1.000000
     49 C     c    0.775390    0.805470    0.350340     0.00000    1.000000
     50 C     c    0.822140    0.700800    0.025420     0.00000    1.000000
     51 C     c    0.158850    0.041420    0.608140     0.00000    1.000000
     52 C     c    0.475450    0.263670    0.276720     0.00000    1.000000
     53 C     c    0.434110    0.399070    0.122820     0.00000    1.000000
     54 C     c    0.365170    0.086530    0.295420     0.00000    1.000000
     55 C     c    0.624040    0.265980    0.391520     0.00000    1.000000
     56 C     c    0.422070    0.211680    0.832300     0.00000    1.000000
     57 C     c    0.643780    0.456050    0.850340     0.00000    1.000000
     58 C     c    0.736830    0.968640    0.602750     0.00000    1.000000
     59 C     c    0.098480    0.802150    0.043760     0.00000    1.000000
     60 C     c    0.618020    0.536070    0.254360     0.00000    1.000000
     61 C     c    0.572740    0.809500    0.390280     0.00000    1.000000
     62 C     c    0.026900    0.207980    0.602170     0.00000    1.000000
     63 C     c    0.641180    0.642030    0.932100     0.00000    1.000000
     64 C     c    0.588680    0.825080    0.852220     0.00000    1.000000

  Brillouin zone sampling points :

  Point number          x          y          z            Weight
        1           0.062500   0.062500   0.062500     0.00390625
        2           0.062500   0.062500   0.187500     0.00390625
        3           0.062500   0.062500   0.312500     0.00390625
        4           0.062500   0.062500   0.437500     0.00390625
        5           0.062500   0.062500   0.562500     0.00390625
        6           0.062500   0.062500   0.687500     0.00390625
        7           0.062500   0.062500   0.812500     0.00390625
        8           0.062500   0.062500   0.937500     0.00390625
        9           0.062500   0.187500   0.062500     0.00390625
       10           0.062500   0.187500   0.187500     0.00390625
       11           0.062500   0.187500   0.312500     0.00390625
       12           0.062500   0.187500   0.437500     0.00390625
       13           0.062500   0.187500   0.562500     0.00390625
       14           0.062500   0.187500   0.687500     0.00390625
       15           0.062500   0.187500   0.812500     0.00390625
       16           0.062500   0.187500   0.937500     0.00390625
       17           0.062500   0.312500   0.062500     0.00390625
       18           0.062500   0.312500   0.187500     0.00390625
       19           0.062500   0.312500   0.312500     0.00390625
       20           0.062500   0.312500   0.437500     0.00390625
       21           0.062500   0.312500   0.562500     0.00390625
       22           0.062500   0.312500   0.687500     0.00390625
       23           0.062500   0.312500   0.812500     0.00390625
       24           0.062500   0.312500   0.937500     0.00390625
       25           0.062500   0.437500   0.062500     0.00390625
       26           0.062500   0.437500   0.187500     0.00390625
       27           0.062500   0.437500   0.312500     0.00390625
       28           0.062500   0.437500   0.437500     0.00390625
       29           0.062500   0.437500   0.562500     0.00390625
       30           0.062500   0.437500   0.687500     0.00390625
       31           0.062500   0.437500   0.812500     0.00390625
       32           0.062500   0.437500   0.937500     0.00390625
       33           0.062500   0.562500   0.062500     0.00390625
       34           0.062500   0.562500   0.187500     0.00390625
       35           0.062500   0.562500   0.312500     0.00390625
       36           0.062500   0.562500   0.437500     0.00390625
       37           0.062500   0.562500   0.562500     0.00390625
       38           0.062500   0.562500   0.687500     0.00390625
       39           0.062500   0.562500   0.812500     0.00390625
       40           0.062500   0.562500   0.937500     0.00390625
       41           0.062500   0.687500   0.062500     0.00390625
       42           0.062500   0.687500   0.187500     0.00390625
       43           0.062500   0.687500   0.312500     0.00390625
       44           0.062500   0.687500   0.437500     0.00390625
       45           0.062500   0.687500   0.562500     0.00390625
       46           0.062500   0.687500   0.687500     0.00390625
       47           0.062500   0.687500   0.812500     0.00390625
       48           0.062500   0.687500   0.937500     0.00390625
       49           0.062500   0.812500   0.062500     0.00390625
       50           0.062500   0.812500   0.187500     0.00390625
       51           0.062500   0.812500   0.312500     0.00390625
       52           0.062500   0.812500   0.437500     0.00390625
       53           0.062500   0.812500   0.562500     0.00390625
       54           0.062500   0.812500   0.687500     0.00390625
       55           0.062500   0.812500   0.812500     0.00390625
       56           0.062500   0.812500   0.937500     0.00390625
       57           0.062500   0.937500   0.062500     0.00390625
       58           0.062500   0.937500   0.187500     0.00390625
       59           0.062500   0.937500   0.312500     0.00390625
       60           0.062500   0.937500   0.437500     0.00390625
[...]
      242           0.437500   0.812500   0.187500     0.00390625
      243           0.437500   0.812500   0.312500     0.00390625
      244           0.437500   0.812500   0.437500     0.00390625
      245           0.437500   0.812500   0.562500     0.00390625
      246           0.437500   0.812500   0.687500     0.00390625
      247           0.437500   0.812500   0.812500     0.00390625
      248           0.437500   0.812500   0.937500     0.00390625
      249           0.437500   0.937500   0.062500     0.00390625
      250           0.437500   0.937500   0.187500     0.00390625
      251           0.437500   0.937500   0.312500     0.00390625
      252           0.437500   0.937500   0.437500     0.00390625
      253           0.437500   0.937500   0.562500     0.00390625
      254           0.437500   0.937500   0.687500     0.00390625
      255           0.437500   0.937500   0.812500     0.00390625
      256           0.437500   0.937500   0.937500     0.00390625

*  General input information                                                   *

  Species output for all configurations :

  Species    Type    Atomic    Atomic    Charge       Radii (Angs)     Library
                     Number     Mass       (e)     Cova   Ionic  VDW   Symbol
    C        Core        6      12.01   0.000000   0.770  0.000  1.530

  Lattice summation method               =    Ewald          (3-D)
                                         =    Parry          (2-D)
                                         =    Saunders et al (1-D)
  Accuracy factor for lattice sums       =   12.000

  Analytic derivatives to be used

  Time limit = Infinity

  Maximum range for interatomic potentials =    100000.000000 Angstroms

  Brenner et al 2002 potential to be used with explicit splines for P

*  Output for configuration   1                                                *

  Components of energy :

  Interatomic potentials     =           0.00000000 eV
  Brenner potentials         =        -428.44535868 eV
  Monopole - monopole (real) =           0.00000000 eV
  Monopole - monopole (recip)=           0.00000000 eV
  Monopole - monopole (total)=           0.00000000 eV
  Total lattice energy       =        -428.44535868 eV
  Total lattice energy       =          -41338.4277 kJ/(mole unit cells)

  Elastic Constant Matrix: (Units=GPa)

  Indices      1         2         3         4         5         6
       1    357.7132  157.0226  193.5487    2.6949  -62.8640  -19.0575
       2    157.0226  470.2221  137.1412  -24.4930   -2.2151   37.3619
       3    193.5487  137.1412  556.8731  -17.8866  -57.4020    2.3293
       4      2.6949  -24.4930  -17.8866  136.6017   -3.5988  -22.7163
       5    -62.8640   -2.2151  -57.4020   -3.5988  149.7068  -19.4288
       6    -19.0575   37.3619    2.3293  -22.7163  -19.4288  138.2012

  Elastic Compliance Matrix: (Units=1/GPa)

  Indices      1         2         3         4         5         6
       1    0.004193 -0.001193 -0.001022 -0.000209  0.001488  0.001093
       2   -0.001193  0.002702 -0.000309  0.000293 -0.000694 -0.000939
       3   -0.001022 -0.000309  0.002282  0.000278  0.000450  0.000013
       4   -0.000209  0.000293  0.000278  0.007621  0.000361  0.001191
       5    0.001488 -0.000694  0.000450  0.000361  0.007673  0.001523
       6    0.001093 -0.000939  0.000013  0.001191  0.001523  0.008050

  Mechanical properties :

  Convention :                    Reuss         Voigt         Hill
  Bulk  Modulus (GPa)     =     242.12192     262.24813     252.18503
  Shear Modulus (GPa)     =     128.38509     144.70833     136.54671
  Velocity S-wave (km/s)  =       6.58976       6.99615       6.79599
  Velocity P-wave (km/s)  =      11.82350      12.40823      12.11939
  Compressibility (1/GPa) =    0.00413015
  Stress axis :                     x             y             z
  Youngs Moduli (GPa)     =     238.47475     370.12638     438.19436
  Poissons Ratio (x)      =                     0.44159       0.44762
  Poissons Ratio (y)      =       0.28452                     0.13537
  Poissons Ratio (z)      =       0.24360       0.11434

  Piezoelectric Strain Matrix: (Units=C/m**2)

  Indices      1         2         3         4         5         6
       x    -0.00000  -0.00000  -0.00000  -0.00000  -0.00000  -0.00000
       y    -0.00000  -0.00000  -0.00000  -0.00000  -0.00000  -0.00000
       z    -0.00000  -0.00000  -0.00000  -0.00000  -0.00000  -0.00000

  Piezoelectric Stress Matrix: (Units=10**-11 C/N)

  Indices      1         2         3         4         5         6
       x     0.00000   0.00000   0.00000   0.00000   0.00000   0.00000
       y     0.00000   0.00000   0.00000   0.00000   0.00000   0.00000
       z     0.00000   0.00000   0.00000   0.00000   0.00000   0.00000

  Static dielectric constant tensor :

              x         y         z
       x     1.00000   0.00000   0.00000
       y     0.00000   1.00000   0.00000
       z     0.00000   0.00000   1.00000

  Static refractive indices :

    1 =    1.00000      2 =    1.00000      3 =    1.00000

  Phonon Calculation :

  Number of k points for this configuration =      256

  K point      1 =   0.062500  0.062500  0.062500  Weight =    0.004

  Frequencies (cm-1) [NB: Negative implies an imaginary mode]:

[...]

  K point    256 =   0.437500  0.937500  0.937500  Weight =    0.004

  Frequencies (cm-1) [NB: Negative implies an imaginary mode]:

  100.77  129.05  149.41  171.33  187.52  194.91  215.16  221.26  237.76
  253.34  269.75  277.79  283.74  290.49  297.60  309.41  317.95  339.37
  346.71  348.31  356.18  365.87  369.14  375.40  382.42  389.16  401.58
  405.15  414.55  421.28  427.50  436.38  443.86  455.15  462.99  467.83
  478.01  484.28  491.31  495.71  505.00  512.28  521.84  524.88  531.69
  543.73  551.42  559.13  566.25  579.18  583.01  587.98  596.98  600.86
  611.27  618.01  623.06  630.71  636.43  640.84  646.65  650.50  661.29
  667.11  678.34  684.68  693.48  701.69  717.22  722.02  727.63  732.05
  737.98  743.80  748.50  758.05  761.05  765.16  779.93  782.86  793.02
  802.14  810.15  813.29  824.15  831.60  839.76  846.00  854.46  863.94
  873.84  880.32  889.16  894.59  906.51  914.58  915.91  925.32  931.19
  937.63  945.00  959.44  961.64  970.46  984.51  987.94  992.55  999.28
 1013.87 1023.41 1030.10 1034.59 1046.87 1051.01 1061.24 1068.23 1075.46
 1083.65 1087.48 1099.63 1110.00 1116.11 1117.41 1125.13 1144.50 1150.16
 1160.78 1164.57 1177.59 1184.37 1187.99 1203.48 1209.43 1211.93 1220.33
 1225.85 1242.69 1254.08 1259.34 1265.80 1277.00 1284.53 1293.24 1299.98
 1304.66 1313.44 1316.14 1320.10 1329.78 1337.64 1349.48 1354.93 1369.38
 1374.73 1387.49 1394.06 1415.48 1427.37 1432.19 1438.99 1444.97 1446.60
 1461.85 1473.73 1483.23 1489.97 1495.73 1508.20 1512.37 1535.58 1538.45
 1559.85 1601.02 1623.69 1634.99 1653.51 1658.69 1663.77 1667.82 1683.90
 1695.11 1731.19 1738.53 1794.19 1804.54 1809.35 1819.96 1948.70 2491.17
 2546.20 2798.03 2921.14

  Phonon properties (per mole of unit cells): Temperature =      0.000 K
  Zero point energy            =       11.419358 eV

  Time to end of properties =      32.1936 seconds

  Timing analysis for GULP :

  Task / Subroutine                                          Time (Seconds)
  Calculation of real space energy and derivatives                0.0330
  Calculation of Brenner energy and derivatives                  26.6459
  Calculation of phonons                                         32.0671
  Disk read/write operations to scratch files                     0.1036

  Job Finished at 23:34.42 10th August     2020