  Job Started  at 10:17.10 22nd April      2021

  Number of CPUs =    12

  Host name      = p0

  Total number of configurations input =      1

*  Input for Configuration =   1                                               *

  Formula = C512

  Number of irreducible atoms/shells =     512

  Total number atoms/shells =     512

  Dimensionality = 3               :  Bulk

  Cartesian lattice vectors (Angstroms) :

       14.688105    0.000000    0.000000
        0.000000   14.688105    0.000000
        0.000000    0.000000   14.688105

  Cell parameters (Angstroms/Degrees):

  a =      14.6881    alpha =  90.0000
  b =      14.6881    beta  =  90.0000
  c =      14.6881    gamma =  90.0000

  Initial cell volume =        3168.818066 Angs**3

  Shrinking factors =      4     4     4

  Temperature of configuration =  0.000     K

  Pressure of configuration =         0.000 GPa

  Fractional coordinates of asymmetric unit :

   No.  Atomic       x           y          z         Charge      Occupancy
        Label      (Frac)      (Frac)     (Frac)        (e)         (Frac)
      1 C     c    0.337148    0.083772    0.601114     0.00000    1.000000
      2 C     c    0.457180    0.131737    0.518360     0.00000    1.000000
      3 C     c    0.728962    0.394537    0.091653     0.00000    1.000000
      4 C     c    0.827199    0.135747    0.224631     0.00000    1.000000
      5 C     c    0.449529    0.988678    0.177143     0.00000    1.000000
      6 C     c    0.376198    0.714343    0.792400     0.00000    1.000000
      7 C     c    0.940480    0.803900    0.366369     0.00000    1.000000
      8 C     c    0.113424    0.726263    0.167423     0.00000    1.000000
      9 C     c    0.158867    0.413420    0.180332     0.00000    1.000000
     10 C     c    0.075872    0.562861    0.938587     0.00000    1.000000
     11 C     c    0.455760    0.495143    0.452857     0.00000    1.000000
     12 C     c    0.193163    0.162473    0.627326     0.00000    1.000000
     13 C     c    0.502093    0.872940    0.645792     0.00000    1.000000
     14 C     c    0.951084    0.827472    0.921076     0.00000    1.000000
     15 C     c    0.270577    0.020446    0.644921     0.00000    1.000000
     16 C     c    0.138997    0.251530    0.373509     0.00000    1.000000
     17 C     c    0.643199    0.478211    0.730265     0.00000    1.000000
     18 C     c    0.155948    0.848272    0.800989     0.00000    1.000000
     19 C     c    0.672629    0.890248    0.523782     0.00000    1.000000
     20 C     c    0.362272    0.981080    0.789722     0.00000    1.000000
     21 C     c    0.788641    0.896379    0.056570     0.00000    1.000000
     22 C     c    0.969318    0.483741    0.343150     0.00000    1.000000
     23 C     c    0.755150    0.348802    0.661394     0.00000    1.000000
     24 C     c    0.227749    0.359084    0.550520     0.00000    1.000000
     25 C     c    0.577478    0.960691    0.403552     0.00000    1.000000
     26 C     c    0.109334    0.462754    0.922363     0.00000    1.000000
     27 C     c    0.587799    0.723109    0.986019     0.00000    1.000000
     28 C     c    0.930393    0.738119    0.190403     0.00000    1.000000
     29 C     c    0.349596    0.025062    0.893708     0.00000    1.000000
     30 C     c    0.225159    0.293952    0.315121     0.00000    1.000000
     31 C     c    0.172786    0.441979    0.502437     0.00000    1.000000
     32 C     c    0.666470    0.552192    0.020376     0.00000    1.000000
     33 C     c    0.017664    0.136900    0.647329     0.00000    1.000000
     34 C     c    0.509773    0.200328    0.142803     0.00000    1.000000
     35 C     c    0.579297    0.647423    0.917103     0.00000    1.000000
     36 C     c    0.936724    0.459781    0.539185     0.00000    1.000000
     37 C     c    0.255889    0.285721    0.954702     0.00000    1.000000
     38 C     c    0.738488    0.556802    0.934481     0.00000    1.000000
     39 C     c    0.774711    0.478059    0.240334     0.00000    1.000000
     40 C     c    0.715001    0.350572    0.823691     0.00000    1.000000
     41 C     c    0.991109    0.086312    0.737530     0.00000    1.000000
     42 C     c    0.151709    0.627019    0.974388     0.00000    1.000000
     43 C     c    0.973108    0.883591    0.298419     0.00000    1.000000
     44 C     c    0.570810    0.238968    0.998972     0.00000    1.000000
     45 C     c    0.847741    0.104353    0.656078     0.00000    1.000000
     46 C     c    0.879844    0.766213    0.979417     0.00000    1.000000
     47 C     c    0.019716    0.316559    0.312960     0.00000    1.000000
     48 C     c    0.625570    0.942073    0.017533     0.00000    1.000000
     49 C     c    0.749149    0.382185    0.256477     0.00000    1.000000
     50 C     c    0.319942    0.444201    0.603078     0.00000    1.000000
     51 C     c    0.026589    0.315021    0.675568     0.00000    1.000000
     52 C     c    0.206949    0.473680    0.860709     0.00000    1.000000
     53 C     c    0.044586    0.780339    0.672095     0.00000    1.000000
     54 C     c    0.177388    0.390608    0.806584     0.00000    1.000000
     55 C     c    0.247751    0.239017    0.782948     0.00000    1.000000
     56 C     c    0.208138    0.982821    0.412090     0.00000    1.000000
     57 C     c    0.061568    0.762643    0.083234     0.00000    1.000000
     58 C     c    0.430369    0.105399    0.274300     0.00000    1.000000
     59 C     c    0.234604    0.566018    0.819036     0.00000    1.000000
     60 C     c    0.582461    0.333033    0.629670     0.00000    1.000000
[...]
    498 C     c    0.169713    0.118331    0.289251     0.00000    1.000000
    499 C     c    0.326552    0.661678    0.955901     0.00000    1.000000
    500 C     c    0.912108    0.689711    0.036108     0.00000    1.000000
    501 C     c    0.682085    0.968466    0.374421     0.00000    1.000000
    502 C     c    0.322318    0.173169    0.819013     0.00000    1.000000
    503 C     c    0.317285    0.563010    0.748369     0.00000    1.000000
    504 C     c    0.085832    0.189398    0.922146     0.00000    1.000000
    505 C     c    0.177968    0.807847    0.177950     0.00000    1.000000
    506 C     c    0.009902    0.937666    0.802722     0.00000    1.000000
    507 C     c    0.672990    0.476532    0.104162     0.00000    1.000000
    508 C     c    0.177653    0.954258    0.780742     0.00000    1.000000
    509 C     c    0.831588    0.950150    0.464670     0.00000    1.000000
    510 C     c    0.562941    0.300118    0.336363     0.00000    1.000000
    511 C     c    0.834200    0.536310    0.761005     0.00000    1.000000
    512 C     c    0.891650    0.105510    0.756850     0.00000    1.000000

  Brillouin zone sampling points :

  Point number          x          y          z            Weight
        1           0.500000   0.000000   0.500000     0.00581395
        2           0.473684   0.000000   0.500000     0.00581395
        3           0.447368   0.000000   0.500000     0.00581395
        4           0.421053   0.000000   0.500000     0.00581395
        5           0.394737   0.000000   0.500000     0.00581395
        6           0.368421   0.000000   0.500000     0.00581395
        7           0.342105   0.000000   0.500000     0.00581395
        8           0.315789   0.000000   0.500000     0.00581395
        9           0.289474   0.000000   0.500000     0.00581395
       10           0.263158   0.000000   0.500000     0.00581395
       11           0.236842   0.000000   0.500000     0.00581395
       12           0.210526   0.000000   0.500000     0.00581395
       13           0.184211   0.000000   0.500000     0.00581395
       14           0.157895   0.000000   0.500000     0.00581395
       15           0.131579   0.000000   0.500000     0.00581395
       16           0.105263   0.000000   0.500000     0.00581395
       17           0.078947   0.000000   0.500000     0.00581395
       18           0.052632   0.000000   0.500000     0.00581395
       19           0.026316   0.000000   0.500000     0.00581395
       20           0.000000   0.000000   0.500000     0.00581395
       21           0.000000   0.000000   0.500000     0.00581395
       22           0.000000   0.000000   0.473684     0.00581395
       23           0.000000   0.000000   0.447368     0.00581395
       24           0.000000   0.000000   0.421053     0.00581395
       25           0.000000   0.000000   0.394737     0.00581395
       26           0.000000   0.000000   0.368421     0.00581395
       27           0.000000   0.000000   0.342105     0.00581395
       28           0.000000   0.000000   0.315789     0.00581395
       29           0.000000   0.000000   0.289474     0.00581395
       30           0.000000   0.000000   0.263158     0.00581395
       31           0.000000   0.000000   0.236842     0.00581395
       32           0.000000   0.000000   0.210526     0.00581395
       33           0.000000   0.000000   0.184211     0.00581395
       34           0.000000   0.000000   0.157895     0.00581395
       35           0.000000   0.000000   0.131579     0.00581395
       36           0.000000   0.000000   0.105263     0.00581395
       37           0.000000   0.000000   0.078947     0.00581395
       38           0.000000   0.000000   0.052632     0.00581395
       39           0.000000   0.000000   0.026316     0.00581395
       40           0.000000   0.000000   0.000000     0.00581395
       41           0.000000   0.000000   0.000000     0.00581395
       42           0.026316   0.000000   0.000000     0.00581395
       43           0.052632   0.000000   0.000000     0.00581395
       44           0.078947   0.000000   0.000000     0.00581395
       45           0.105263   0.000000   0.000000     0.00581395
       46           0.131579   0.000000   0.000000     0.00581395
       47           0.157895   0.000000   0.000000     0.00581395
       48           0.184211   0.000000   0.000000     0.00581395
       49           0.210526   0.000000   0.000000     0.00581395
       50           0.236842   0.000000   0.000000     0.00581395
       51           0.263158   0.000000   0.000000     0.00581395
       52           0.289474   0.000000   0.000000     0.00581395
       53           0.315789   0.000000   0.000000     0.00581395
       54           0.342105   0.000000   0.000000     0.00581395
       55           0.368421   0.000000   0.000000     0.00581395
       56           0.394737   0.000000   0.000000     0.00581395
       57           0.421053   0.000000   0.000000     0.00581395
       58           0.447368   0.000000   0.000000     0.00581395
       59           0.473684   0.000000   0.000000     0.00581395
       60           0.500000   0.000000   0.000000     0.00581395
[...]
      158           0.375000   0.125000   0.375000     0.00581395
      159           0.375000   0.125000   0.625000     0.00581395
      160           0.375000   0.125000   0.875000     0.00581395
      161           0.375000   0.375000   0.125000     0.00581395
      162           0.375000   0.375000   0.375000     0.00581395
[...]
 3794.00000 |                                                              0.000
 3796.00000 |                                                              0.000
 3798.00000 |                                                              0.000
 3800.00000 |                                                              0.000
 3802.00000 |                                                              0.000
 3804.00000 |                                                              0.000
 3806.00000 |                                                              0.000
 3808.00000 |                                                              0.000
 3810.00000 |                                                              0.000
 3812.00000 |                                                              0.000
 3814.00000 |                                                              0.000
 3816.00000 |                                                              0.000
 3818.00000 |                                                              0.000
 3820.00000 |                                                              0.000
 3822.00000 |                                                              0.000
 3824.00000 |                                                              0.000
 3826.00000 |                                                              0.000
 3828.00000 |                                                              0.000
 3830.00000 |                                                              0.000
 3832.00000 |                                                              0.000
 3834.00000 |                                                              0.000
 3836.00000 |                                                              0.000
 3838.00000 |                                                              0.000
 3840.00000 |                                                              0.000
 3842.00000 |                                                              0.000
 3844.00000 |                                                              0.000
 3846.00000 |                                                              0.000
 3848.00000 |                                                              0.000
 3850.00000 |                                                              0.000
 3852.00000 |                                                              0.000
 3854.00000 |                                                              0.000
 3856.00000 |                                                              0.000
 3858.00000 |*******************                                           0.001

  Phonon density of states written as 10sp2_1175.dens

  Phonon dispersion curves :

  Section number =   1
  Frequency (cm-1) Phonon dispersion
  3714.34   |  *  *  *  *  *  *  *  *  *  *  *  *  *  *  *  *  *  *  *  *
  3559.57   |  *  *  *  *  *  *  *  *  *  *  *  *  *  *  *  *  *  *  *  *
  3404.81   |  *  *  *  *  *  *  *  *  *  *  *  *  *  *  *  *  *  *  *  *
  3250.04   |  *  *  *  *  *  *  *  *  *  *  *  *  *  *  *  *  *  *  *  *
  3095.28   |  *  *  *  *  *  *  *  *  *  *  *  *  *  *  *  *  *  *  *  *
  2940.52   |  *  *  *  *  *  *  *  *  *  *  *  *  *  *  *  *  *  *  *  *
  2785.75   |  *  *  *  *  *  *  *  *  *  *  *  *  *  *  *  *  *  *  *  *
  2630.99   |  *  *  *  *  *  *  *  *  *  *  *  *  *  *  *  *  *  *  *  *
  2476.22   |  *  *  *  *  *  *  *  *  *  *  *  *  *  *  *  *  *  *  *  *
  2321.46   |  *  *  *  *  *  *  *  *  *  *  *  *  *  *  *  *  *  *  *  *
  2166.70   |  *  *  *  *  *  *  *  *  *  *  *  *  *  *  *  *  *  *  *  *
  2011.93   |  *  *  *  *  *  *  *  *  *  *  *  *  *  *  *  *  *  *  *  *
  1857.17   |  *  *  *  *  *  *  *  *  *  *  *  *  *  *  *  *  *  *  *  *
  1702.40   |  *  *  *  *  *  *  *  *  *  *  *  *  *  *  *  *  *  *  *  *
  1547.64   |  *  *  *  *  *  *  *  *  *  *  *  *  *  *  *  *  *  *  *  *
  1392.88   |  *  *  *  *  *  *  *  *  *  *  *  *  *  *  *  *  *  *  *  *
  1238.11   |  *  *  *  *  *  *  *  *  *  *  *  *  *  *  *  *  *  *  *  *
  1083.35   |  *  *  *  *  *  *  *  *  *  *  *  *  *  *  *  *  *  *  *  *
   928.58   |  *  *  *  *  *  *  *  *  *  *  *  *  *  *  *  *  *  *  *  *
   773.82   |  *  *  *  *  *  *  *  *  *  *  *  *  *  *  *  *  *  *  *  *
   619.06   |  *  *  *  *  *  *  *  *  *  *  *  *  *  *  *  *  *  *  *  *
   464.29   |  *  *  *  *  *  *  *  *  *  *  *  *  *  *  *  *  *  *  *  *
   309.53   |  *  *  *  *  *  *  *  *  *  *  *  *  *  *  *  *  *  *  *  *
   154.76   |  *  *  *  *  *  *  *  *  *  *  *  *  *  *  *  *  *  *  *  *
     0.00   |  *  *  *  *  *  *  *  *  *  *  *  *  *  *  *  *  *  *  *  *
  Section number =   2
  Frequency (cm-1) Phonon dispersion
  3714.34   |  *  *  *  *  *  *  *  *  *  *  *  *  *  *  *  *  *  *  *  *
  3559.57   |  *  *  *  *  *  *  *  *  *  *  *  *  *  *  *  *  *  *  *  *
  3404.81   |  *  *  *  *  *  *  *  *  *  *  *  *  *  *  *  *  *  *  *  *
  3250.04   |  *  *  *  *  *  *  *  *  *  *  *  *  *  *  *  *  *  *  *  *
  3095.28   |  *  *  *  *  *  *  *  *  *  *  *  *  *  *  *  *  *  *  *  *
  2940.52   |  *  *  *  *  *  *  *  *  *  *  *  *  *  *  *  *  *  *  *  *
  2785.75   |  *  *  *  *  *  *  *  *  *  *  *  *  *  *  *  *  *  *  *  *
  2630.99   |  *  *  *  *  *  *  *  *  *  *  *  *  *  *  *  *  *  *  *  *
  2476.22   |  *  *  *  *  *  *  *  *  *  *  *  *  *  *  *  *  *  *  *  *
  2321.46   |  *  *  *  *  *  *  *  *  *  *  *  *  *  *  *  *  *  *  *  *
  2166.70   |  *  *  *  *  *  *  *  *  *  *  *  *  *  *  *  *  *  *  *  *
  2011.93   |  *  *  *  *  *  *  *  *  *  *  *  *  *  *  *  *  *  *  *  *
  1857.17   |  *  *  *  *  *  *  *  *  *  *  *  *  *  *  *  *  *  *  *  *
  1702.40   |  *  *  *  *  *  *  *  *  *  *  *  *  *  *  *  *  *  *  *  *
  1547.64   |  *  *  *  *  *  *  *  *  *  *  *  *  *  *  *  *  *  *  *  *
  1392.88   |  *  *  *  *  *  *  *  *  *  *  *  *  *  *  *  *  *  *  *  *
  1238.11   |  *  *  *  *  *  *  *  *  *  *  *  *  *  *  *  *  *  *  *  *
  1083.35   |  *  *  *  *  *  *  *  *  *  *  *  *  *  *  *  *  *  *  *  *
   928.58   |  *  *  *  *  *  *  *  *  *  *  *  *  *  *  *  *  *  *  *  *
   773.82   |  *  *  *  *  *  *  *  *  *  *  *  *  *  *  *  *  *  *  *  *
   619.06   |  *  *  *  *  *  *  *  *  *  *  *  *  *  *  *  *  *  *  *  *
   464.29   |  *  *  *  *  *  *  *  *  *  *  *  *  *  *  *  *  *  *  *  *
   309.53   |  *  *  *  *  *  *  *  *  *  *  *  *  *  *  *  *  *  *  *  *
   154.76   |  *  *  *  *  *  *  *  *  *  *  *  *  *  *  *  *  *  *  *  *
     0.00   |  *  *  *  *  *  *  *  *  *  *  *  *  *  *  *  *  *  *  *  *
  Section number =   3
  Frequency (cm-1) Phonon dispersion
  3714.34   |  *  *  *  *  *  *  *  *  *  *  *  *  *  *  *  *  *  *  *  *
  3559.57   |  *  *  *  *  *  *  *  *  *  *  *  *  *  *  *  *  *  *  *  *
  3404.81   |  *  *  *  *  *  *  *  *  *  *  *  *  *  *  *  *  *  *  *  *
  3250.04   |  *  *  *  *  *  *  *  *  *  *  *  *  *  *  *  *  *  *  *  *
  3095.28   |  *  *  *  *  *  *  *  *  *  *  *  *  *  *  *  *  *  *  *  *
  2940.52   |  *  *  *  *  *  *  *  *  *  *  *  *  *  *  *  *  *  *  *  *
  2785.75   |  *  *  *  *  *  *  *  *  *  *  *  *  *  *  *  *  *  *  *  *
  2630.99   |  *  *  *  *  *  *  *  *  *  *  *  *  *  *  *  *  *  *  *  *
  2476.22   |  *  *  *  *  *  *  *  *  *  *  *  *  *  *  *  *  *  *  *  *
  2321.46   |  *  *  *  *  *  *  *  *  *  *  *  *  *  *  *  *  *  *  *  *
  2166.70   |  *  *  *  *  *  *  *  *  *  *  *  *  *  *  *  *  *  *  *  *
  2011.93   |  *  *  *  *  *  *  *  *  *  *  *  *  *  *  *  *  *  *  *  *
  1857.17   |  *  *  *  *  *  *  *  *  *  *  *  *  *  *  *  *  *  *  *  *
  1702.40   |  *  *  *  *  *  *  *  *  *  *  *  *  *  *  *  *  *  *  *  *
  1547.64   |  *  *  *  *  *  *  *  *  *  *  *  *  *  *  *  *  *  *  *  *
  1392.88   |  *  *  *  *  *  *  *  *  *  *  *  *  *  *  *  *  *  *  *  *
  1238.11   |  *  *  *  *  *  *  *  *  *  *  *  *  *  *  *  *  *  *  *  *
  1083.35   |  *  *  *  *  *  *  *  *  *  *  *  *  *  *  *  *  *  *  *  *
   928.58   |  *  *  *  *  *  *  *  *  *  *  *  *  *  *  *  *  *  *  *  *
   773.82   |  *  *  *  *  *  *  *  *  *  *  *  *  *  *  *  *  *  *  *  *
   619.06   |  *  *  *  *  *  *  *  *  *  *  *  *  *  *  *  *  *  *  *  *
   464.29   |  *  *  *  *  *  *  *  *  *  *  *  *  *  *  *  *  *  *  *  *
   309.53   |  *  *  *  *  *  *  *  *  *  *  *  *  *  *  *  *  *  *  *  *
   154.76   |  *  *  *  *  *  *  *  *  *  *  *  *  *  *  *  *  *  *  *  *
     0.00   |  *  *  *  *  *  *  *  *  *  *  *  *  *  *  *  *  *  *  *  *
  Section number =   4
  Frequency (cm-1) Phonon dispersion
  3714.34   |  *  *  *  *  *  *  *  *  *  *  *  *  *  *  *  *  *  *  *  *
  3559.57   |  *  *  *  *  *  *  *  *  *  *  *  *  *  *  *  *  *  *  *  *
  3404.81   |  *  *  *  *  *  *  *  *  *  *  *  *  *  *  *  *  *  *  *  *
  3250.04   |  *  *  *  *  *  *  *  *  *  *  *  *  *  *  *  *  *  *  *  *
  3095.28   |  *  *  *  *  *  *  *  *  *  *  *  *  *  *  *  *  *  *  *  *
  2940.52   |  *  *  *  *  *  *  *  *  *  *  *  *  *  *  *  *  *  *  *  *
  2785.75   |  *  *  *  *  *  *  *  *  *  *  *  *  *  *  *  *  *  *  *  *
  2630.99   |  *  *  *  *  *  *  *  *  *  *  *  *  *  *  *  *  *  *  *  *
  2476.22   |  *  *  *  *  *  *  *  *  *  *  *  *  *  *  *  *  *  *  *  *
  2321.46   |  *  *  *  *  *  *  *  *  *  *  *  *  *  *  *  *  *  *  *  *
  2166.70   |  *  *  *  *  *  *  *  *  *  *  *  *  *  *  *  *  *  *  *  *
  2011.93   |  *  *  *  *  *  *  *  *  *  *  *  *  *  *  *  *  *  *  *  *
  1857.17   |  *  *  *  *  *  *  *  *  *  *  *  *  *  *  *  *  *  *  *  *
  1702.40   |  *  *  *  *  *  *  *  *  *  *  *  *  *  *  *  *  *  *  *  *
  1547.64   |  *  *  *  *  *  *  *  *  *  *  *  *  *  *  *  *  *  *  *  *
  1392.88   |  *  *  *  *  *  *  *  *  *  *  *  *  *  *  *  *  *  *  *  *
  1238.11   |  *  *  *  *  *  *  *  *  *  *  *  *  *  *  *  *  *  *  *  *
  1083.35   |  *  *  *  *  *  *  *  *  *  *  *  *  *  *  *  *  *  *  *  *
   928.58   |  *  *  *  *  *  *  *  *  *  *  *  *  *  *  *  *  *  *  *  *
   773.82   |  *  *  *  *  *  *  *  *  *  *  *  *  *  *  *  *  *  *  *  *
   619.06   |  *  *  *  *  *  *  *  *  *  *  *  *  *  *  *  *  *  *  *  *
   464.29   |  *  *  *  *  *  *  *  *  *  *  *  *  *  *  *  *  *  *  *  *
   309.53   |  *  *  *  *  *  *  *  *  *  *  *  *  *  *  *  *  *  *  *  *
   154.76   |  *  *  *  *  *  *  *  *  *  *  *  *  *  *  *  *  *  *  *  *
     0.00   |  *  *  *  *  *  *  *  *  *  *  *  *  *  *  *  *  *  *  *  *
  Section number =   5
  Frequency (cm-1) Phonon dispersion
  3714.34   |  *  *  *  *  *  *  *  *  *  *  *  *  *  *  *  *  *  *  *  *
  3559.57   |  *  *  *  *  *  *  *  *  *  *  *  *  *  *  *  *  *  *  *  *
  3404.81   |  *  *  *  *  *  *  *  *  *  *  *  *  *  *  *  *  *  *  *  *
  3250.04   |  *  *  *  *  *  *  *  *  *  *  *  *  *  *  *  *  *  *  *  *
  3095.28   |  *  *  *  *  *  *  *  *  *  *  *  *  *  *  *  *  *  *  *  *
  2940.52   |  *  *  *  *  *  *  *  *  *  *  *  *  *  *  *  *  *  *  *  *
  2785.75   |  *  *  *  *  *  *  *  *  *  *  *  *  *  *  *  *  *  *  *  *
  2630.99   |  *  *  *  *  *  *  *  *  *  *  *  *  *  *  *  *  *  *  *  *
  2476.22   |  *  *  *  *  *  *  *  *  *  *  *  *  *  *  *  *  *  *  *  *
  2321.46   |  *  *  *  *  *  *  *  *  *  *  *  *  *  *  *  *  *  *  *  *
  2166.70   |  *  *  *  *  *  *  *  *  *  *  *  *  *  *  *  *  *  *  *  *
  2011.93   |  *  *  *  *  *  *  *  *  *  *  *  *  *  *  *  *  *  *  *  *
  1857.17   |  *  *  *  *  *  *  *  *  *  *  *  *  *  *  *  *  *  *  *  *
  1702.40   |  *  *  *  *  *  *  *  *  *  *  *  *  *  *  *  *  *  *  *  *
  1547.64   |  *  *  *  *  *  *  *  *  *  *  *  *  *  *  *  *  *  *  *  *
  1392.88   |  *  *  *  *  *  *  *  *  *  *  *  *  *  *  *  *  *  *  *  *
  1238.11   |  *  *  *  *  *  *  *  *  *  *  *  *  *  *  *  *  *  *  *  *
  1083.35   |  *  *  *  *  *  *  *  *  *  *  *  *  *  *  *  *  *  *  *  *
   928.58   |  *  *  *  *  *  *  *  *  *  *  *  *  *  *  *  *  *  *  *  *
   773.82   |  *  *  *  *  *  *  *  *  *  *  *  *  *  *  *  *  *  *  *  *
   619.06   |  *  *  *  *  *  *  *  *  *  *  *  *  *  *  *  *  *  *  *  *
   464.29   |  *  *  *  *  *  *  *  *  *  *  *  *  *  *  *  *  *  *  *  *
   309.53   |  *  *  *  *  *  *  *  *  *  *  *  *  *  *  *  *  *  *  *  *
   154.76   |  *  *  *  *  *  *  *  *  *  *  *  *  *  *  *  *  *  *  *  *
     0.00   |  *  *  *  *  *  *  *  *  *  *  *  *  *  *  *  *  *  *  *  *
  Section number =   6
  Frequency (cm-1) Phonon dispersion
  3714.34   |  *  *  *  *  *  *  *  *  *  *  *  *  *  *  *  *  *  *  *  *
  3559.57   |  *  *  *  *  *  *  *  *  *  *  *  *  *  *  *  *  *  *  *  *
  3404.81   |  *  *  *  *  *  *  *  *  *  *  *  *  *  *  *  *  *  *  *  *
  3250.04   |  *  *  *  *  *  *  *  *  *  *  *  *  *  *  *  *  *  *  *  *
  3095.28   |  *  *  *  *  *  *  *  *  *  *  *  *  *  *  *  *  *  *  *  *
  2940.52   |  *  *  *  *  *  *  *  *  *  *  *  *  *  *  *  *  *  *  *  *
  2785.75   |  *  *  *  *  *  *  *  *  *  *  *  *  *  *  *  *  *  *  *  *
  2630.99   |  *  *  *  *  *  *  *  *  *  *  *  *  *  *  *  *  *  *  *  *
  2476.22   |  *  *  *  *  *  *  *  *  *  *  *  *  *  *  *  *  *  *  *  *
  2321.46   |  *  *  *  *  *  *  *  *  *  *  *  *  *  *  *  *  *  *  *  *
  2166.70   |  *  *  *  *  *  *  *  *  *  *  *  *  *  *  *  *  *  *  *  *
  2011.93   |  *  *  *  *  *  *  *  *  *  *  *  *  *  *  *  *  *  *  *  *
  1857.17   |  *  *  *  *  *  *  *  *  *  *  *  *  *  *  *  *  *  *  *  *
  1702.40   |  *  *  *  *  *  *  *  *  *  *  *  *  *  *  *  *  *  *  *  *
  1547.64   |  *  *  *  *  *  *  *  *  *  *  *  *  *  *  *  *  *  *  *  *
  1392.88   |  *  *  *  *  *  *  *  *  *  *  *  *  *  *  *  *  *  *  *  *
  1238.11   |  *  *  *  *  *  *  *  *  *  *  *  *  *  *  *  *  *  *  *  *
  1083.35   |  *  *  *  *  *  *  *  *  *  *  *  *  *  *  *  *  *  *  *  *
   928.58   |  *  *  *  *  *  *  *  *  *  *  *  *  *  *  *  *  *  *  *  *
   773.82   |  *  *  *  *  *  *  *  *  *  *  *  *  *  *  *  *  *  *  *  *
   619.06   |  *  *  *  *  *  *  *  *  *  *  *  *  *  *  *  *  *  *  *  *
   464.29   |  *  *  *  *  *  *  *  *  *  *  *  *  *  *  *  *  *  *  *  *
   309.53   |  *  *  *  *  *  *  *  *  *  *  *  *  *  *  *  *  *  *  *  *
   154.76   |  *  *  *  *  *  *  *  *  *  *  *  *  *  *  *  *  *  *  *  *
     0.00   |  *  *  *  *  *  *  *  *  *  *  *  *  *  *  *  *  *  *  *  *
  Section number =   7
  Frequency (cm-1) Phonon dispersion
  3714.34   |  *  *  *  *  *  *  *  *  *  *  *  *  *  *  *  *  *  *  *  *
  3559.57   |  *  *  *  *  *  *  *  *  *  *  *  *  *  *  *  *  *  *  *  *
  3404.81   |  *  *  *  *  *  *  *  *  *  *  *  *  *  *  *  *  *  *  *  *
  3250.04   |  *  *  *  *  *  *  *  *  *  *  *  *  *  *  *  *  *  *  *  *
  3095.28   |  *  *  *  *  *  *  *  *  *  *  *  *  *  *  *  *  *  *  *  *
  2940.52   |  *  *  *  *  *  *  *  *  *  *  *  *  *  *  *  *  *  *  *  *
  2785.75   |  *  *  *  *  *  *  *  *  *  *  *  *  *  *  *  *  *  *  *  *
  2630.99   |  *  *  *  *  *  *  *  *  *  *  *  *  *  *  *  *  *  *  *  *
  2476.22   |  *  *  *  *  *  *  *  *  *  *  *  *  *  *  *  *  *  *  *  *
  2321.46   |  *  *  *  *  *  *  *  *  *  *  *  *  *  *  *  *  *  *  *  *
  2166.70   |  *  *  *  *  *  *  *  *  *  *  *  *  *  *  *  *  *  *  *  *
  2011.93   |  *  *  *  *  *  *  *  *  *  *  *  *  *  *  *  *  *  *  *  *
  1857.17   |  *  *  *  *  *  *  *  *  *  *  *  *  *  *  *  *  *  *  *  *
  1702.40   |  *  *  *  *  *  *  *  *  *  *  *  *  *  *  *  *  *  *  *  *
  1547.64   |  *  *  *  *  *  *  *  *  *  *  *  *  *  *  *  *  *  *  *  *
  1392.88   |  *  *  *  *  *  *  *  *  *  *  *  *  *  *  *  *  *  *  *  *
  1238.11   |  *  *  *  *  *  *  *  *  *  *  *  *  *  *  *  *  *  *  *  *
  1083.35   |  *  *  *  *  *  *  *  *  *  *  *  *  *  *  *  *  *  *  *  *
   928.58   |  *  *  *  *  *  *  *  *  *  *  *  *  *  *  *  *  *  *  *  *
   773.82   |  *  *  *  *  *  *  *  *  *  *  *  *  *  *  *  *  *  *  *  *
   619.06   |  *  *  *  *  *  *  *  *  *  *  *  *  *  *  *  *  *  *  *  *
   464.29   |  *  *  *  *  *  *  *  *  *  *  *  *  *  *  *  *  *  *  *  *
   309.53   |  *  *  *  *  *  *  *  *  *  *  *  *  *  *  *  *  *  *  *  *
   154.76   |  *  *  *  *  *  *  *  *  *  *  *  *  *  *  *  *  *  *  *  *
     0.00   |  *  *  *  *  *  *  *  *  *  *  *  *  *  *  *  *  *  *  *  *

  Phonon dispersion written as 10sp2_1175.disp

  Time to end of properties =   10945.0995 seconds

  Timing analysis for GULP :

  Task / Subroutine                                          Time (Seconds)
  Calculation of real space energy and derivatives                0.0859
  Calculation of Brenner energy and derivatives                1500.3222
  Calculation of phonons                                      10839.1849
  Disk read/write operations to scratch files                     0.0001
  Global summation overhead                                     192.7203

  Job Finished at 13:19.34 22nd April      2021