  Job Started  at 13:01.40 31st July       2020

  Number of CPUs =     1

  Total number of configurations input =      1

*  Input for Configuration =   1                                               *

  Formula = C8

  Number of irreducible atoms/shells =       8

  Total number atoms/shells =       8

  Dimensionality = 3               :  Bulk

  Cartesian lattice vectors (Angstroms) :

        3.578900    0.000000    0.000000
        0.000000    3.578900    0.000000
        0.000000    0.000000    3.578900

  Cell parameters (Angstroms/Degrees):

  a =       3.5789    alpha =  90.0000
  b =       3.5789    beta  =  90.0000
  c =       3.5789    gamma =  90.0000

  Initial cell volume =          45.840431 Angs**3

  Shrinking factors =      8     8     8

  Temperature of configuration =   10.0     K

  Pressure of configuration =         0.000 GPa

  Fractional coordinates of asymmetric unit :

   No.  Atomic       x           y          z         Charge      Occupancy
        Label      (Frac)      (Frac)     (Frac)        (e)         (Frac)
      1 C     c    0.000000    0.000000    0.000000     0.00000    1.000000
      2 C     c    0.000000    0.500000    0.500000     0.00000    1.000000
      3 C     c    0.500000    0.500000    0.000000     0.00000    1.000000
      4 C     c    0.500000    0.000000    0.500000     0.00000    1.000000
      5 C     c    0.750000    0.250000    0.750000     0.00000    1.000000
      6 C     c    0.250000    0.250000    0.250000     0.00000    1.000000
      7 C     c    0.250000    0.750000    0.750000     0.00000    1.000000
      8 C     c    0.750000    0.750000    0.250000     0.00000    1.000000

  Brillouin zone sampling points :

  Point number          x          y          z            Weight
        1           0.062500   0.062500   0.062500     0.00390625
        2           0.062500   0.062500   0.187500     0.00390625
        3           0.062500   0.062500   0.312500     0.00390625
        4           0.062500   0.062500   0.437500     0.00390625
        5           0.062500   0.062500   0.562500     0.00390625
        6           0.062500   0.062500   0.687500     0.00390625
        7           0.062500   0.062500   0.812500     0.00390625
        8           0.062500   0.062500   0.937500     0.00390625
        9           0.062500   0.187500   0.062500     0.00390625
       10           0.062500   0.187500   0.187500     0.00390625
       11           0.062500   0.187500   0.312500     0.00390625
       12           0.062500   0.187500   0.437500     0.00390625
       13           0.062500   0.187500   0.562500     0.00390625
       14           0.062500   0.187500   0.687500     0.00390625
       15           0.062500   0.187500   0.812500     0.00390625
       16           0.062500   0.187500   0.937500     0.00390625
       17           0.062500   0.312500   0.062500     0.00390625
       18           0.062500   0.312500   0.187500     0.00390625
       19           0.062500   0.312500   0.312500     0.00390625
       20           0.062500   0.312500   0.437500     0.00390625
       21           0.062500   0.312500   0.562500     0.00390625
       22           0.062500   0.312500   0.687500     0.00390625
       23           0.062500   0.312500   0.812500     0.00390625
       24           0.062500   0.312500   0.937500     0.00390625
       25           0.062500   0.437500   0.062500     0.00390625
       26           0.062500   0.437500   0.187500     0.00390625
       27           0.062500   0.437500   0.312500     0.00390625
       28           0.062500   0.437500   0.437500     0.00390625
       29           0.062500   0.437500   0.562500     0.00390625
       30           0.062500   0.437500   0.687500     0.00390625
       31           0.062500   0.437500   0.812500     0.00390625
       32           0.062500   0.437500   0.937500     0.00390625
       33           0.062500   0.562500   0.062500     0.00390625
       34           0.062500   0.562500   0.187500     0.00390625
       35           0.062500   0.562500   0.312500     0.00390625
       36           0.062500   0.562500   0.437500     0.00390625
       37           0.062500   0.562500   0.562500     0.00390625
       38           0.062500   0.562500   0.687500     0.00390625
       39           0.062500   0.562500   0.812500     0.00390625
       40           0.062500   0.562500   0.937500     0.00390625
       41           0.062500   0.687500   0.062500     0.00390625
       42           0.062500   0.687500   0.187500     0.00390625
       43           0.062500   0.687500   0.312500     0.00390625
       44           0.062500   0.687500   0.437500     0.00390625
       45           0.062500   0.687500   0.562500     0.00390625
       46           0.062500   0.687500   0.687500     0.00390625
       47           0.062500   0.687500   0.812500     0.00390625
       48           0.062500   0.687500   0.937500     0.00390625
       49           0.062500   0.812500   0.062500     0.00390625
       50           0.062500   0.812500   0.187500     0.00390625
       51           0.062500   0.812500   0.312500     0.00390625
       52           0.062500   0.812500   0.437500     0.00390625
       53           0.062500   0.812500   0.562500     0.00390625
       54           0.062500   0.812500   0.687500     0.00390625
       55           0.062500   0.812500   0.812500     0.00390625
       56           0.062500   0.812500   0.937500     0.00390625
       57           0.062500   0.937500   0.062500     0.00390625
       58           0.062500   0.937500   0.187500     0.00390625
       59           0.062500   0.937500   0.312500     0.00390625
       60           0.062500   0.937500   0.437500     0.00390625
[...]
      242           0.437500   0.812500   0.187500     0.00390625
      243           0.437500   0.812500   0.312500     0.00390625
      244           0.437500   0.812500   0.437500     0.00390625
      245           0.437500   0.812500   0.562500     0.00390625
      246           0.437500   0.812500   0.687500     0.00390625
      247           0.437500   0.812500   0.812500     0.00390625
      248           0.437500   0.812500   0.937500     0.00390625
      249           0.437500   0.937500   0.062500     0.00390625
      250           0.437500   0.937500   0.187500     0.00390625
      251           0.437500   0.937500   0.312500     0.00390625
      252           0.437500   0.937500   0.437500     0.00390625
      253           0.437500   0.937500   0.562500     0.00390625
      254           0.437500   0.937500   0.687500     0.00390625
      255           0.437500   0.937500   0.812500     0.00390625
      256           0.437500   0.937500   0.937500     0.00390625

*  General input information                                                   *

  Species output for all configurations :

  Species    Type    Atomic    Atomic    Charge       Radii (Angs)     Library
                     Number     Mass       (e)     Cova   Ionic  VDW   Symbol
    C        Core        6      12.01   0.000000   0.770  0.000  1.530

  Lattice summation method               =    Ewald          (3-D)
                                         =    Parry          (2-D)
                                         =    Saunders et al (1-D)
  Accuracy factor for lattice sums       =   12.000

  Analytic derivatives to be used

  Time limit = Infinity

  Maximum range for interatomic potentials =    100000.000000 Angstroms

  Brenner et al 2002 potential to be used with explicit splines for P

*  Output for configuration   1                                                *

  Components of energy :

  Interatomic potentials     =           0.00000000 eV
  Brenner potentials         =         -58.95035735 eV
  Monopole - monopole (real) =           0.00000000 eV
  Monopole - monopole (recip)=           0.00000000 eV
  Monopole - monopole (total)=           0.00000000 eV
  Total lattice energy       =         -58.95035735 eV
  Total lattice energy       =           -5687.8083 kJ/(mole unit cells)

  Elastic Constant Matrix: (Units=GPa)

  Indices      1         2         3         4         5         6
       1   1045.1820  114.0283  114.0283   -0.0000   -0.0000   -0.0000
       2    114.0283 1045.1820  114.0283   -0.0000   -0.0000   -0.0000
       3    114.0283  114.0283 1045.1820   -0.0000   -0.0000   -0.0000
       4     -0.0000   -0.0000   -0.0000  698.6185    0.0000    0.0000
       5     -0.0000   -0.0000   -0.0000    0.0000  698.6185    0.0000
       6     -0.0000   -0.0000   -0.0000    0.0000    0.0000  698.6185

  Elastic Compliance Matrix: (Units=1/GPa)

  Indices      1         2         3         4         5         6
       1    0.000978 -0.000096 -0.000096  0.000000  0.000000  0.000000
       2   -0.000096  0.000978 -0.000096  0.000000  0.000000  0.000000
       3   -0.000096 -0.000096  0.000978  0.000000  0.000000  0.000000
       4    0.000000  0.000000  0.000000  0.001431 -0.000000 -0.000000
       5    0.000000  0.000000  0.000000 -0.000000  0.001431 -0.000000
       6    0.000000  0.000000  0.000000 -0.000000 -0.000000  0.001431

  Mechanical properties :

  Convention :                    Reuss         Voigt         Hill
  Bulk  Modulus (GPa)     =     424.41290     424.41290     424.41290
  Shear Modulus (GPa)     =     582.07654     605.40183     593.73918
  Velocity S-wave (km/s)  =      12.93213      13.18869      13.06104
  Velocity P-wave (km/s)  =      18.57221      18.81124      18.69211
  Compressibility (1/GPa) =    0.00235620
  Stress axis :                     x             y             z
  Youngs Moduli (GPa)     =    1022.74872    1022.74872    1022.74872
  Poissons Ratio (x)      =                     0.09837       0.09837
  Poissons Ratio (y)      =       0.09837                     0.09837
  Poissons Ratio (z)      =       0.09837       0.09837

  Piezoelectric Strain Matrix: (Units=C/m**2)

  Indices      1         2         3         4         5         6
       x    -0.00000  -0.00000  -0.00000  -0.00000  -0.00000  -0.00000
       y    -0.00000  -0.00000  -0.00000  -0.00000  -0.00000  -0.00000
       z    -0.00000  -0.00000  -0.00000  -0.00000  -0.00000  -0.00000

  Piezoelectric Stress Matrix: (Units=10**-11 C/N)

  Indices      1         2         3         4         5         6
       x     0.00000   0.00000   0.00000   0.00000   0.00000   0.00000
       y     0.00000   0.00000   0.00000   0.00000   0.00000   0.00000
       z     0.00000   0.00000   0.00000   0.00000   0.00000   0.00000

  Static dielectric constant tensor :

              x         y         z
       x     1.00000   0.00000   0.00000
       y     0.00000   1.00000   0.00000
       z     0.00000   0.00000   1.00000

  Static refractive indices :

    1 =    1.00000      2 =    1.00000      3 =    1.00000

  Phonon Calculation :

  Number of k points for this configuration =      256

  K point      1 =   0.062500  0.062500  0.062500  Weight =    0.004

  Frequencies (cm-1) [NB: Negative implies an imaginary mode]:

[...]

  K point    256 =   0.437500  0.937500  0.937500  Weight =    0.004

  Frequencies (cm-1) [NB: Negative implies an imaginary mode]:

[...]
  Mean kinetic energy          =        0.841678 eV
  Heat capacity - const volume =        0.000003 eV/K
                               =        0.265845 J/(mol.K)
  Phonon properties (per mole of unit cells): Temperature =     70.000 K
  Zero point energy            =        1.683317 eV
  Entropy                      =        0.000001 eV/K
                               =        0.131321 J/(mol.K)
  Helmholtz free-energy        =      -57.267061 eV
                               =    -5525.395528 kJmol-1
  Free energy (equipartition)  =      -58.501862 eV
  - T*S       (equipartition)  =        0.303724 eV
  Uvib        (equipartition)  =        0.144771 eV
  Mean kinetic energy          =        0.841696 eV
  Heat capacity - const volume =        0.000004 eV/K
                               =        0.427951 J/(mol.K)
  Phonon properties (per mole of unit cells): Temperature =     80.000 K
  Zero point energy            =        1.683317 eV
  Entropy                      =        0.000002 eV/K
                               =        0.202172 J/(mol.K)
  Helmholtz free-energy        =      -57.267078 eV
                               =    -5525.397179 kJmol-1
  Free energy (equipartition)  =      -58.459884 eV
  - T*S       (equipartition)  =        0.325020 eV
  Uvib        (equipartition)  =        0.165453 eV
  Mean kinetic energy          =        0.841723 eV
  Heat capacity - const volume =        0.000007 eV/K
                               =        0.649006 J/(mol.K)
  Phonon properties (per mole of unit cells): Temperature =     90.000 K
  Zero point energy            =        1.683317 eV
  Entropy                      =        0.000003 eV/K
                               =        0.294759 J/(mol.K)
  Helmholtz free-energy        =      -57.267104 eV
                               =    -5525.399644 kJmol-1
  Free energy (equipartition)  =      -58.420498 eV
  - T*S       (equipartition)  =        0.343725 eV
  Uvib        (equipartition)  =        0.186134 eV
  Mean kinetic energy          =        0.841764 eV
  Heat capacity - const volume =        0.000010 eV/K
                               =        0.942066 J/(mol.K)
  Phonon properties (per mole of unit cells): Temperature =    100.000 K
  Zero point energy            =        1.683317 eV
  Entropy                      =        0.000004 eV/K
                               =        0.412831 J/(mol.K)
  Helmholtz free-energy        =      -57.267140 eV
                               =    -5525.403159 kJmol-1
  Free energy (equipartition)  =      -58.383415 eV
  - T*S       (equipartition)  =        0.360126 eV
  Uvib        (equipartition)  =        0.206816 eV
  Mean kinetic energy          =        0.841822 eV
  Heat capacity - const volume =        0.000014 eV/K
                               =        1.321523 J/(mol.K)
  Phonon properties (per mole of unit cells): Temperature =    110.000 K
  Zero point energy            =        1.683317 eV
  Entropy                      =        0.000006 eV/K
                               =        0.560471 J/(mol.K)
  Helmholtz free-energy        =      -57.267191 eV
                               =    -5525.407999 kJmol-1
  Free energy (equipartition)  =      -58.348404 eV
  - T*S       (equipartition)  =        0.374456 eV
  Uvib        (equipartition)  =        0.227498 eV
  Mean kinetic energy          =        0.841903 eV
  Heat capacity - const volume =        0.000019 eV/K
                               =        1.802318 J/(mol.K)
  Phonon properties (per mole of unit cells): Temperature =    120.000 K
  Zero point energy            =        1.683317 eV
  Entropy                      =        0.000008 eV/K
                               =        0.741981 J/(mol.K)
  Helmholtz free-energy        =      -57.267258 eV
                               =    -5525.414481 kJmol-1
  Free energy (equipartition)  =      -58.315275 eV
  - T*S       (equipartition)  =        0.386903 eV
  Uvib        (equipartition)  =        0.248179 eV
  Mean kinetic energy          =        0.842011 eV
  Heat capacity - const volume =        0.000025 eV/K
                               =        2.398840 J/(mol.K)
  Phonon properties (per mole of unit cells): Temperature =    130.000 K
  Zero point energy            =        1.683317 eV
  Entropy                      =        0.000010 eV/K
                               =        0.961726 J/(mol.K)
  Helmholtz free-energy        =      -57.267346 eV
                               =    -5525.422966 kJmol-1
  Free energy (equipartition)  =      -58.283872 eV
  - T*S       (equipartition)  =        0.397624 eV
  Uvib        (equipartition)  =        0.268861 eV
  Mean kinetic energy          =        0.842154 eV
  Heat capacity - const volume =        0.000032 eV/K
                               =        3.123894 J/(mol.K)
  Phonon properties (per mole of unit cells): Temperature =    140.000 K
  Zero point energy            =        1.683317 eV
  Entropy                      =        0.000013 eV/K
                               =        1.223968 J/(mol.K)
  Helmholtz free-energy        =      -57.267459 eV
                               =    -5525.433857 kJmol-1
  Free energy (equipartition)  =      -58.254062 eV
  - T*S       (equipartition)  =        0.406753 eV
  Uvib        (equipartition)  =        0.289542 eV
  Mean kinetic energy          =        0.842337 eV
  Heat capacity - const volume =        0.000041 eV/K
                               =        3.987961 J/(mol.K)
  Phonon properties (per mole of unit cells): Temperature =    150.000 K
  Zero point energy            =        1.683317 eV
  Entropy                      =        0.000016 eV/K
                               =        1.532718 J/(mol.K)
  Helmholtz free-energy        =      -57.267601 eV
                               =    -5525.447600 kJmol-1
  Free energy (equipartition)  =      -58.225729 eV
  - T*S       (equipartition)  =        0.414404 eV
  Uvib        (equipartition)  =        0.310224 eV
  Mean kinetic energy          =        0.842570 eV
  Heat capacity - const volume =        0.000052 eV/K
                               =        4.998818 J/(mol.K)
  Phonon properties (per mole of unit cells): Temperature =    160.000 K
  Zero point energy            =        1.683317 eV
  Entropy                      =        0.000020 eV/K
                               =        1.891623 J/(mol.K)
  Helmholtz free-energy        =      -57.267778 eV
                               =    -5525.464679 kJmol-1
  Free energy (equipartition)  =      -58.198777 eV
  - T*S       (equipartition)  =        0.420675 eV
  Uvib        (equipartition)  =        0.330906 eV
  Mean kinetic energy          =        0.842858 eV
  Heat capacity - const volume =        0.000064 eV/K
                               =        6.161446 J/(mol.K)
  Phonon properties (per mole of unit cells): Temperature =    170.000 K
  Zero point energy            =        1.683317 eV
  Entropy                      =        0.000024 eV/K
                               =        2.303887 J/(mol.K)
  Helmholtz free-energy        =      -57.267995 eV
                               =    -5525.485611 kJmol-1
  Free energy (equipartition)  =      -58.173118 eV
  - T*S       (equipartition)  =        0.425652 eV
  Uvib        (equipartition)  =        0.351587 eV
  Mean kinetic energy          =        0.843211 eV
  Heat capacity - const volume =        0.000078 eV/K
                               =        7.478146 J/(mol.K)
  Phonon properties (per mole of unit cells): Temperature =    180.000 K
  Zero point energy            =        1.683317 eV
  Entropy                      =        0.000029 eV/K
                               =        2.772225 J/(mol.K)
  Helmholtz free-energy        =      -57.268258 eV
                               =    -5525.510944 kJmol-1
  Free energy (equipartition)  =      -58.148676 eV
  - T*S       (equipartition)  =        0.429412 eV
  Uvib        (equipartition)  =        0.372269 eV
  Mean kinetic energy          =        0.843636 eV
  Heat capacity - const volume =        0.000093 eV/K
                               =        8.948761 J/(mol.K)
  Phonon properties (per mole of unit cells): Temperature =    190.000 K
  Zero point energy            =        1.683317 eV
  Entropy                      =        0.000034 eV/K
                               =        3.298844 J/(mol.K)
  Helmholtz free-energy        =      -57.268572 eV
                               =    -5525.541250 kJmol-1
  Free energy (equipartition)  =      -58.125384 eV
  - T*S       (equipartition)  =        0.432022 eV
  Uvib        (equipartition)  =        0.392951 eV
  Mean kinetic energy          =        0.844141 eV
  Heat capacity - const volume =        0.000110 eV/K
                               =       10.570946 J/(mol.K)
  Phonon properties (per mole of unit cells): Temperature =    200.000 K
  Zero point energy            =        1.683317 eV
  Entropy                      =        0.000040 eV/K
                               =        3.885438 J/(mol.K)
  Helmholtz free-energy        =      -57.268943 eV
                               =    -5525.577120 kJmol-1
  Free energy (equipartition)  =      -58.103181 eV
  - T*S       (equipartition)  =        0.433544 eV
  Uvib        (equipartition)  =        0.413632 eV
  Mean kinetic energy          =        0.844734 eV
  Heat capacity - const volume =        0.000128 eV/K
                               =       12.340444 J/(mol.K)
  Phonon properties (per mole of unit cells): Temperature =    210.000 K
  Zero point energy            =        1.683317 eV
  Entropy                      =        0.000047 eV/K
                               =        4.533207 J/(mol.K)
  Helmholtz free-energy        =      -57.269379 eV
                               =    -5525.619162 kJmol-1
  Free energy (equipartition)  =      -58.082013 eV
  - T*S       (equipartition)  =        0.434031 eV
  Uvib        (equipartition)  =        0.434314 eV
  Mean kinetic energy          =        0.845422 eV
  Heat capacity - const volume =        0.000148 eV/K
                               =       14.251365 J/(mol.K)
  Phonon properties (per mole of unit cells): Temperature =    220.000 K
  Zero point energy            =        1.683317 eV
  Entropy                      =        0.000054 eV/K
                               =        5.242876 J/(mol.K)
  Helmholtz free-energy        =      -57.269885 eV
                               =    -5525.667991 kJmol-1
  Free energy (equipartition)  =      -58.061829 eV
  - T*S       (equipartition)  =        0.433533 eV
  Uvib        (equipartition)  =        0.454995 eV
  Mean kinetic energy          =        0.846213 eV
  Heat capacity - const volume =        0.000169 eV/K
                               =       16.296438 J/(mol.K)
  Phonon properties (per mole of unit cells): Temperature =    230.000 K
  Zero point energy            =        1.683317 eV
  Entropy                      =        0.000062 eV/K
                               =        6.014723 J/(mol.K)
  Helmholtz free-energy        =      -57.270468 eV
                               =    -5525.724227 kJmol-1
  Free energy (equipartition)  =      -58.042586 eV
  - T*S       (equipartition)  =        0.432094 eV
  Uvib        (equipartition)  =        0.475677 eV
  Mean kinetic energy          =        0.847114 eV
  Heat capacity - const volume =        0.000191 eV/K
                               =       18.467263 J/(mol.K)
  Phonon properties (per mole of unit cells): Temperature =    240.000 K
  Zero point energy            =        1.683317 eV
  Entropy                      =        0.000071 eV/K
                               =        6.848615 J/(mol.K)
  Helmholtz free-energy        =      -57.271134 eV
                               =    -5525.788492 kJmol-1
  Free energy (equipartition)  =      -58.024243 eV
  - T*S       (equipartition)  =        0.429756 eV
  Uvib        (equipartition)  =        0.496359 eV
  Mean kinetic energy          =        0.848129 eV
  Heat capacity - const volume =        0.000215 eV/K
                               =       20.754546 J/(mol.K)
  Phonon properties (per mole of unit cells): Temperature =    250.000 K
  Zero point energy            =        1.683317 eV
  Entropy                      =        0.000080 eV/K
                               =        7.744039 J/(mol.K)
  Helmholtz free-energy        =      -57.271890 eV
                               =    -5525.861405 kJmol-1
  Free energy (equipartition)  =      -58.006761 eV
  - T*S       (equipartition)  =        0.426556 eV
  Uvib        (equipartition)  =        0.517040 eV
  Mean kinetic energy          =        0.849266 eV
  Heat capacity - const volume =        0.000240 eV/K
                               =       23.148318 J/(mol.K)
  Phonon properties (per mole of unit cells): Temperature =    260.000 K
  Zero point energy            =        1.683317 eV
  Entropy                      =        0.000090 eV/K
                               =        8.700143 J/(mol.K)
  Helmholtz free-energy        =      -57.272741 eV
                               =    -5525.943575 kJmol-1
  Free energy (equipartition)  =      -57.990107 eV
  - T*S       (equipartition)  =        0.422528 eV
  Uvib        (equipartition)  =        0.537722 eV
  Mean kinetic energy          =        0.850530 eV
  Heat capacity - const volume =        0.000266 eV/K
                               =       25.638152 J/(mol.K)
  Phonon properties (per mole of unit cells): Temperature =    270.000 K
  Zero point energy            =        1.683317 eV
  Entropy                      =        0.000101 eV/K
                               =        9.715772 J/(mol.K)
  Helmholtz free-energy        =      -57.273695 eV
                               =    -5526.035606 kJmol-1
  Free energy (equipartition)  =      -57.974249 eV
  - T*S       (equipartition)  =        0.417705 eV
  Uvib        (equipartition)  =        0.558403 eV
  Mean kinetic energy          =        0.851925 eV
  Heat capacity - const volume =        0.000292 eV/K
                               =       28.213349 J/(mol.K)
  Phonon properties (per mole of unit cells): Temperature =    280.000 K
  Zero point energy            =        1.683317 eV
  Entropy                      =        0.000112 eV/K
                               =       10.789507 J/(mol.K)
  Helmholtz free-energy        =      -57.274757 eV
                               =    -5526.138084 kJmol-1
  Free energy (equipartition)  =      -57.959157 eV
  - T*S       (equipartition)  =        0.412115 eV
  Uvib        (equipartition)  =        0.579085 eV
  Mean kinetic energy          =        0.853456 eV
  Heat capacity - const volume =        0.000320 eV/K
                               =       30.863120 J/(mol.K)
  Phonon properties (per mole of unit cells): Temperature =    290.000 K
  Zero point energy            =        1.683317 eV
  Entropy                      =        0.000124 eV/K
                               =       11.919697 J/(mol.K)
  Helmholtz free-energy        =      -57.275934 eV
                               =    -5526.251584 kJmol-1
  Free energy (equipartition)  =      -57.944803 eV
  - T*S       (equipartition)  =        0.405787 eV
  Uvib        (equipartition)  =        0.599767 eV
  Mean kinetic energy          =        0.855125 eV
  Heat capacity - const volume =        0.000348 eV/K
                               =       33.576742 J/(mol.K)
  Phonon properties (per mole of unit cells): Temperature =    300.000 K
  Zero point energy            =        1.683317 eV
  Entropy                      =        0.000136 eV/K
                               =       13.104502 J/(mol.K)
  Helmholtz free-energy        =      -57.277230 eV
                               =    -5526.376660 kJmol-1
  Free energy (equipartition)  =      -57.931163 eV
  - T*S       (equipartition)  =        0.398746 eV
  Uvib        (equipartition)  =        0.620448 eV
  Mean kinetic energy          =        0.856937 eV
  Heat capacity - const volume =        0.000377 eV/K
                               =       36.343698 J/(mol.K)

  Time to end of properties =      13.4712 seconds

  Timing analysis for GULP :

  Task / Subroutine                                          Time (Seconds)
  Calculation of real space energy and derivatives                0.0036
  Calculation of Brenner energy and derivatives                  13.1956
  Calculation of phonons                                         13.3833
  Calculation of matrix inversion                                 0.0001
  Disk read/write operations to scratch files                     0.0404

  Job Finished at 13:01.54 31st July       2020