  Job Started  at 14:15.47 31st July       2020

  Number of CPUs =     1

  Total number of configurations input =      1

*  Input for Configuration =   1                                               *

  Formula = C64

  Number of irreducible atoms/shells =      64

  Total number atoms/shells =      64

  Dimensionality = 3               :  Bulk

  Cartesian lattice vectors (Angstroms) :

        7.574829    0.000000    0.000000
        0.000000    7.574829    0.000000
        0.000000    0.000000    7.574829

  Cell parameters (Angstroms/Degrees):

  a =       7.5748    alpha =  90.0000
  b =       7.5748    beta  =  90.0000
  c =       7.5748    gamma =  90.0000

  Initial cell volume =         434.628799 Angs**3

  Temperature of configuration =   0.00     K

  Pressure of configuration =         0.000 GPa

  Fractional coordinates of asymmetric unit :

   No.  Atomic       x           y          z         Charge      Occupancy
        Label      (Frac)      (Frac)     (Frac)        (e)         (Frac)
      1 C     c    0.035780    0.526170    0.339890     0.00000    1.000000
      2 C     c    0.229590 *  0.062470 *  0.070680 *   0.00000    1.000000
      3 C     c    0.086740 *  0.372580 *  0.241540 *   0.00000    1.000000
      4 C     c    0.849890 *  0.908360 *  0.422460 *   0.00000    1.000000
      5 C     c    0.441280 *  0.873720 *  0.947590 *   0.00000    1.000000
      6 C     c    0.787440 *  0.429530 *  0.218620 *   0.00000    1.000000
      7 C     c    0.901960 *  0.595110 *  0.684440 *   0.00000    1.000000
      8 C     c    0.792250 *  0.510990 *  0.553950 *   0.00000    1.000000
      9 C     c    0.109330 *  0.341370 *  0.597450 *   0.00000    1.000000
     10 C     c    0.368560 *  0.720100 *  0.087270 *   0.00000    1.000000
     11 C     c    0.859240 *  0.209770 *  0.708270 *   0.00000    1.000000
     12 C     c    0.544100 *  0.861310 *  0.508880 *   0.00000    1.000000
     13 C     c    0.399810 *  0.199970 *  0.585870 *   0.00000    1.000000
     14 C     c    0.169580 *  0.946440 *  0.765170 *   0.00000    1.000000
     15 C     c    0.498500 *  0.562480 *  0.365890 *   0.00000    1.000000
     16 C     c    0.950810 *  0.898420 *  0.079280 *   0.00000    1.000000
     17 C     c    0.116990 *  0.779030 *  0.831300 *   0.00000    1.000000
     18 C     c    0.273570 *  0.686230 *  0.563680 *   0.00000    1.000000
     19 C     c    0.707320 *  0.344640 *  0.642410 *   0.00000    1.000000
     20 C     c    0.019610 *  0.197340 *  0.239350 *   0.00000    1.000000
     21 C     c    0.914960 *  0.113770 *  0.392490 *   0.00000    1.000000
     22 C     c    0.837630 *  0.564860 *  0.366020 *   0.00000    1.000000
     23 C     c    0.432980 *  0.789650 *  0.634100 *   0.00000    1.000000
     24 C     c    0.769260 *  0.240060 *  0.292990 *   0.00000    1.000000
     25 C     c    0.643930 *  0.119910 *  0.979490 *   0.00000    1.000000
     26 C     c    0.485730 *  0.554490 *  0.047940 *   0.00000    1.000000
     27 C     c    0.577200 *  0.241410 *  0.526410 *   0.00000    1.000000
     28 C     c    0.601420 *  0.945080 *  0.073870 *   0.00000    1.000000
     29 C     c    0.456300 *  0.873520 *  0.209870 *   0.00000    1.000000
     30 C     c    0.305050 *  0.022220 *  0.885080 *   0.00000    1.000000
     31 C     c    0.783880 *  0.070020 *  0.850190 *   0.00000    1.000000
     32 C     c    0.845150 *  0.726130 *  0.803670 *   0.00000    1.000000
     33 C     c    0.277250 *  0.359650 *  0.526010 *   0.00000    1.000000
     34 C     c    0.192240 *  0.651360 *  0.147020 *   0.00000    1.000000
     35 C     c    0.059800 *  0.466190 *  0.745160 *   0.00000    1.000000
     36 C     c    0.299400 *  0.059080 *  0.468830 *   0.00000    1.000000
     37 C     c    0.158120 *  0.690640 *  0.365300 *   0.00000    1.000000
     38 C     c    0.510810 *  0.270950 *  0.909310 *   0.00000    1.000000
     39 C     c    0.030260 *  0.084690 *  0.074760 *   0.00000    1.000000
     40 C     c    0.731350 *  0.898160 *  0.760240 *   0.00000    1.000000
     41 C     c    0.354530 *  0.518850 *  0.467700 *   0.00000    1.000000
     42 C     c    0.050530 *  0.856680 *  0.457030 *   0.00000    1.000000
     43 C     c    0.032710 *  0.391020 *  0.935900 *   0.00000    1.000000
     44 C     c    0.198350 *  0.432400 *  0.080030 *   0.00000    1.000000
     45 C     c    0.156630 *  0.641120 *  0.718440 *   0.00000    1.000000
     46 C     c    0.878180 *  0.482020 *  0.050850 *   0.00000    1.000000
     47 C     c    0.770670 *  0.816050 *  0.111880 *   0.00000    1.000000
     48 C     c    0.956570 *  0.195360 *  0.913820 *   0.00000    1.000000
     49 C     c    0.760580 *  0.757830 *  0.309070 *   0.00000    1.000000
     50 C     c    0.784460 *  0.652370 *  0.979350 *   0.00000    1.000000
     51 C     c    0.134860 *  0.001610 *  0.567360 *   0.00000    1.000000
     52 C     c    0.449340 *  0.221950 *  0.230520 *   0.00000    1.000000
     53 C     c    0.398790 *  0.353120 *  0.068820 *   0.00000    1.000000
     54 C     c    0.340680 *  0.047910 *  0.256940 *   0.00000    1.000000
     55 C     c    0.598360 *  0.221420 *  0.346800 *   0.00000    1.000000
     56 C     c    0.391290 *  0.170980 *  0.786620 *   0.00000    1.000000
     57 C     c    0.608190 *  0.415170 *  0.804460 *   0.00000    1.000000
     58 C     c    0.706980 *  0.925380 *  0.564050 *   0.00000    1.000000
     59 C     c    0.070550 *  0.762920 *  0.012520 *   0.00000    1.000000
     60 C     c    0.578950 *  0.471410 *  0.218930 *   0.00000    1.000000
     61 C     c    0.558470 *  0.760510 *  0.348430 *   0.00000    1.000000
     62 C     c    0.998680 *  0.176400 *  0.572620 *   0.00000    1.000000
     63 C     c    0.602800 *  0.596610 *  0.896230 *   0.00000    1.000000
     64 C     c    0.545760 *  0.785700 *  0.804830 *   0.00000    1.000000

  Constraints :

  Constraint no.      Unconstrained     Constrained    Coefficient    Offset
                         Variable         Variable
           1              Strain 1        Strain 2       1.00000      0.0000
           2              Strain 1        Strain 3       1.00000      0.0000

*  General input information                                                   *

  Species output for all configurations :

  Species    Type    Atomic    Atomic    Charge       Radii (Angs)     Library
                     Number     Mass       (e)     Cova   Ionic  VDW   Symbol
    C        Core        6      12.01   0.000000   0.770  0.000  1.530

  Lattice summation method               =    Ewald          (3-D)
                                         =    Parry          (2-D)
                                         =    Saunders et al (1-D)
  Accuracy factor for lattice sums       =   12.000

  Analytic derivatives to be used

  Time limit = Infinity

  Maximum range for interatomic potentials =    100000.000000 Angstroms

  Brenner et al 2002 potential to be used with explicit splines for P

*  Output for configuration   1                                                *

  Components of energy :

  Interatomic potentials     =           0.00000000 eV
  Brenner potentials         =        -422.04969051 eV
  Monopole - monopole (real) =           0.00000000 eV
  Monopole - monopole (recip)=           0.00000000 eV
  Monopole - monopole (total)=           0.00000000 eV
  Total lattice energy       =        -422.04969051 eV
  Total lattice energy       =          -40721.3435 kJ/(mole unit cells)

  Number of variables =      189

  Maximum number of calculations  =          2000
  Maximum Hessian update interval =            10
  Maximum step size               =   1.000000000
  Maximum parameter tolerance     =   0.000010000
  Maximum function  tolerance     =   0.000010000
  Maximum gradient  tolerance     =   0.001000000
  Maximum gradient  component     =   0.010000000

  Maximum LM gradient tolerance   =   0.900000000
  Symmetry not applied to optimisation

  BFGS hessian update to be used

  Lower half triangular hessian to be used

  Start of bulk optimisation :

  **** Too many failed attempts to optimise ****

  Final energy =    -423.24231887 eV
  Final Gnorm  =       0.00024307

  Components of energy :

  Interatomic potentials     =           0.00000000 eV
  Brenner potentials         =        -423.24231887 eV
  Monopole - monopole (real) =           0.00000000 eV
  Monopole - monopole (recip)=           0.00000000 eV
  Monopole - monopole (total)=           0.00000000 eV
  Total lattice energy       =        -423.24231887 eV
  Total lattice energy       =          -40836.4139 kJ/(mole unit cells)

  Final fractional coordinates of atoms :

   No.  Atomic        x           y          z          Radius
        Label       (Frac)      (Frac)     (Frac)       (Angs)
     1  C     c     0.035780    0.526170    0.339890    0.000000
     2  C     c     0.239715    0.057110    0.074311    0.000000
     3  C     c     0.086629    0.374344    0.243024    0.000000
     4  C     c     0.860336    0.908486    0.419203    0.000000
     5  C     c     0.447628    0.861916    0.953176    0.000000
     6  C     c     0.782903    0.426656    0.218770    0.000000
     7  C     c     0.905592    0.583481    0.687301    0.000000
     8  C     c     0.796100    0.499340    0.556455    0.000000
     9  C     c     0.115991    0.328480    0.611539    0.000000
    10  C     c     0.370965    0.710094    0.091617    0.000000
    11  C     c     0.868251    0.204127    0.714992    0.000000
    12  C     c     0.550110    0.851470    0.515338    0.000000
    13  C     c     0.404940    0.189711    0.593371    0.000000
    14  C     c     0.175944    0.930741    0.772671    0.000000
    15  C     c     0.501511    0.558749    0.368805    0.000000
    16  C     c     0.959809    0.895457    0.085696    0.000000
    17  C     c     0.124265    0.766227    0.841660    0.000000
    18  C     c     0.279096    0.668740    0.571163    0.000000
    19  C     c     0.716846    0.330833    0.646429    0.000000
    20  C     c     0.026242    0.198346    0.240563    0.000000
    21  C     c     0.915449    0.116343    0.392841    0.000000
    22  C     c     0.836409    0.561556    0.367549    0.000000
    23  C     c     0.440772    0.774539    0.641897    0.000000
    24  C     c     0.774362    0.240891    0.290889    0.000000
    25  C     c     0.648746    0.109660    0.983828    0.000000
    26  C     c     0.483689    0.547501    0.050256    0.000000
    27  C     c     0.584649    0.229226    0.529551    0.000000
    28  C     c     0.609010    0.935617    0.079117    0.000000
    29  C     c     0.460236    0.862703    0.215019    0.000000
    30  C     c     0.316039    0.006739    0.890498    0.000000
    31  C     c     0.792364    0.060112    0.852298    0.000000
    32  C     c     0.846146    0.716305    0.802560    0.000000
    33  C     c     0.290916    0.348431    0.546433    0.000000
    34  C     c     0.190401    0.642037    0.160111    0.000000
    35  C     c     0.057968    0.457377    0.752287    0.000000
    36  C     c     0.307587    0.047374    0.477928    0.000000
    37  C     c     0.161069    0.687168    0.379696    0.000000
    38  C     c     0.520226    0.258500    0.916614    0.000000
    39  C     c     0.039690    0.082679    0.076941    0.000000
    40  C     c     0.741681    0.887533    0.762383    0.000000
    41  C     c     0.365625    0.505636    0.482497    0.000000
    42  C     c     0.052186    0.848018    0.463238    0.000000
    43  C     c     0.030389    0.386940    0.942702    0.000000
    44  C     c     0.202014    0.430991    0.080660    0.000000
    45  C     c     0.161760    0.628948    0.728950    0.000000
    46  C     c     0.877088    0.482346    0.050741    0.000000
    47  C     c     0.776560    0.811163    0.114116    0.000000
    48  C     c     0.966219    0.187186    0.917843    0.000000
    49  C     c     0.763905    0.753394    0.310952    0.000000
    50  C     c     0.788449    0.648403    0.983402    0.000000
    51  C     c     0.139543    0.989591    0.579187    0.000000
    52  C     c     0.450108    0.211661    0.234800    0.000000
    53  C     c     0.403793    0.340039    0.073750    0.000000
    54  C     c     0.344093    0.031424    0.262091    0.000000
    55  C     c     0.600886    0.215673    0.348122    0.000000
    56  C     c     0.402923    0.154287    0.792571    0.000000
    57  C     c     0.617928    0.402053    0.811324    0.000000
    58  C     c     0.716579    0.913870    0.567531    0.000000
    59  C     c     0.081775    0.760572    0.025532    0.000000
    60  C     c     0.579030    0.473197    0.217420    0.000000
    61  C     c     0.559306    0.755352    0.350945    0.000000
    62  C     c     0.008006    0.157967    0.573735    0.000000
    63  C     c     0.606314    0.586946    0.895710    0.000000
    64  C     c     0.553609    0.771384    0.809572    0.000000

  Final internal derivatives :

   No.  Atomic          a             b             c           Radius
        Label          (eV)          (eV)          (eV)        (eV/Angs)
      1 C     c       0.000000      0.000000      0.000000      0.000000
      2 C     c      -0.003070      0.006747     -0.000142      0.000000
      3 C     c      -0.003347      0.003184     -0.000438      0.000000
      4 C     c      -0.003802     -0.001817      0.005333      0.000000
      5 C     c      -0.002533      0.004034      0.000486      0.000000
      6 C     c       0.000317     -0.001173     -0.002339      0.000000
      7 C     c      -0.012842      0.006019     -0.004925      0.000000
      8 C     c       0.000590      0.007378     -0.001259      0.000000
      9 C     c      -0.002722      0.003588     -0.001896      0.000000
     10 C     c      -0.000758      0.004657      0.000177      0.000000
     11 C     c      -0.000629      0.000009     -0.001856      0.000000
     12 C     c      -0.001947      0.001905     -0.001741      0.000000
     13 C     c       0.000337     -0.001318     -0.000443      0.000000
     14 C     c       0.001539      0.004134      0.001780      0.000000
     15 C     c       0.000153     -0.001967     -0.001660      0.000000
     16 C     c       0.001333      0.005069      0.005433      0.000000
     17 C     c      -0.004244      0.005990      0.003272      0.000000
     18 C     c      -0.003158      0.004748      0.003106      0.000000
     19 C     c       0.001389      0.004410     -0.002266      0.000000
     20 C     c      -0.001678      0.004057     -0.001226      0.000000
     21 C     c       0.003434     -0.001984      0.002793      0.000000
     22 C     c      -0.004547      0.006074     -0.003553      0.000000
     23 C     c       0.001657      0.002484      0.000543      0.000000
     24 C     c      -0.000457     -0.001523     -0.001321      0.000000
     25 C     c      -0.000597      0.001775      0.005506      0.000000
     26 C     c      -0.000043      0.003657      0.000600      0.000000
     27 C     c       0.001571     -0.001501     -0.000040      0.000000
     28 C     c      -0.001945      0.000485     -0.001798      0.000000
     29 C     c      -0.001578      0.002937      0.003135      0.000000
     30 C     c      -0.000305      0.003940      0.004282      0.000000
     31 C     c      -0.004301      0.001073      0.000251      0.000000
     32 C     c       0.001885      0.005471      0.003472      0.000000
     33 C     c      -0.000508      0.001863      0.000058      0.000000
     34 C     c      -0.004220      0.004535     -0.004820      0.000000
     35 C     c      -0.002384      0.000844      0.001141      0.000000
     36 C     c      -0.007966      0.004289     -0.001770      0.000000
     37 C     c       0.005647     -0.000170     -0.001500      0.000000
     38 C     c      -0.002698      0.001028      0.000727      0.000000
     39 C     c      -0.002350      0.002853     -0.000157      0.000000
     40 C     c      -0.003363      0.002065      0.002781      0.000000
     41 C     c       0.000002      0.003470      0.002254      0.000000
     42 C     c      -0.001333     -0.002659      0.005120      0.000000
     43 C     c       0.001164      0.000801     -0.001476      0.000000
     44 C     c      -0.005382      0.001664      0.001341      0.000000
     45 C     c       0.010808      0.007458      0.006324      0.000000
     46 C     c       0.001739      0.003882     -0.000047      0.000000
     47 C     c      -0.001135      0.006639      0.001016      0.000000
     48 C     c      -0.003212     -0.001213     -0.001080      0.000000
     49 C     c      -0.002290      0.003750     -0.000438      0.000000
     50 C     c      -0.003842      0.000981     -0.000333      0.000000
     51 C     c       0.003215     -0.003664     -0.001773      0.000000
     52 C     c      -0.003424      0.001324     -0.000603      0.000000
     53 C     c      -0.004096      0.006720      0.001838      0.000000
     54 C     c      -0.008561      0.004244      0.004265      0.000000
     55 C     c      -0.001556      0.002758     -0.000925      0.000000
     56 C     c      -0.002209      0.002374      0.000154      0.000000
     57 C     c       0.001439     -0.000195      0.001559      0.000000
     58 C     c      -0.003130      0.000611      0.002186      0.000000
     59 C     c       0.001474      0.008801      0.003547      0.000000
     60 C     c       0.004549      0.002598     -0.004301      0.000000
     61 C     c       0.000310      0.000008     -0.001504      0.000000
     62 C     c       0.001876      0.000361     -0.000837      0.000000
     63 C     c      -0.001634      0.000554      0.001303      0.000000
     64 C     c      -0.002753      0.002861      0.003401      0.000000
  Maximum abs         0.012842      0.008801      0.006324      0.000000

  Time to end of optimisation =       4.3194 seconds

  Timing analysis for GULP :

  Task / Subroutine                                          Time (Seconds)
  Calculation of Brenner energy and derivatives                   4.2494

  CIF file written as opti_1.0075.cif

  Job Finished at 14:15.52 31st July       2020