  Job Started  at 14:18.01 31st July       2020

  Number of CPUs =     1

  Total number of configurations input =      1

*  Input for Configuration =   1                                               *

  Formula = C64

  Number of irreducible atoms/shells =      64

  Total number atoms/shells =      64

  Dimensionality = 3               :  Bulk

  Cartesian lattice vectors (Angstroms) :

        7.612200    0.000000    0.000000
        0.000000    7.612200    0.000000
        0.000000    0.000000    7.612200

  Cell parameters (Angstroms/Degrees):

  a =       7.6122    alpha =  90.0000
  b =       7.6122    beta  =  90.0000
  c =       7.6122    gamma =  90.0000

  Initial cell volume =         441.093411 Angs**3

  Shrinking factors =      8     8     8

  Temperature of configuration =   0.00     K

  Pressure of configuration =         0.000 GPa

  Fractional coordinates of asymmetric unit :

   No.  Atomic       x           y          z         Charge      Occupancy
        Label      (Frac)      (Frac)     (Frac)        (e)         (Frac)
      1 C     c    0.035780    0.526170    0.339890     0.00000    1.000000
      2 C     c    0.239810    0.055630    0.075130     0.00000    1.000000
      3 C     c    0.085400    0.374260    0.243270     0.00000    1.000000
      4 C     c    0.861330    0.907940    0.420850     0.00000    1.000000
      5 C     c    0.448640    0.860600    0.954670     0.00000    1.000000
      6 C     c    0.782180    0.426560    0.221430     0.00000    1.000000
      7 C     c    0.905970    0.581940    0.689530     0.00000    1.000000
      8 C     c    0.797610    0.497970    0.558340     0.00000    1.000000
      9 C     c    0.117440    0.327930    0.614310     0.00000    1.000000
     10 C     c    0.371690    0.709130    0.092840     0.00000    1.000000
     11 C     c    0.869030    0.202630    0.716450     0.00000    1.000000
     12 C     c    0.551770    0.848310    0.516640     0.00000    1.000000
     13 C     c    0.405850    0.189680    0.595220     0.00000    1.000000
     14 C     c    0.177950    0.929770    0.773290     0.00000    1.000000
     15 C     c    0.501160    0.558130    0.369630     0.00000    1.000000
     16 C     c    0.961090    0.894200    0.086420     0.00000    1.000000
     17 C     c    0.125690    0.765900    0.842160     0.00000    1.000000
     18 C     c    0.278460    0.667900    0.570960     0.00000    1.000000
     19 C     c    0.717730    0.329890    0.648400     0.00000    1.000000
     20 C     c    0.024900    0.198540    0.240940     0.00000    1.000000
     21 C     c    0.916340    0.116130    0.394550     0.00000    1.000000
     22 C     c    0.837250    0.560780    0.369470     0.00000    1.000000
     23 C     c    0.442060    0.771920    0.642730     0.00000    1.000000
     24 C     c    0.775040    0.241340    0.293940     0.00000    1.000000
     25 C     c    0.649420    0.107460    0.984080     0.00000    1.000000
     26 C     c    0.484210    0.546750    0.051750     0.00000    1.000000
     27 C     c    0.585200    0.229190    0.531620     0.00000    1.000000
     28 C     c    0.610370    0.933860    0.079690     0.00000    1.000000
     29 C     c    0.461620    0.861940    0.215320     0.00000    1.000000
     30 C     c    0.317150    0.005570    0.891780     0.00000    1.000000
     31 C     c    0.793130    0.058560    0.853040     0.00000    1.000000
     32 C     c    0.845140    0.713880    0.804240     0.00000    1.000000
     33 C     c    0.292000    0.348290    0.549220     0.00000    1.000000
     34 C     c    0.191140    0.640950    0.161550     0.00000    1.000000
     35 C     c    0.058670    0.456910    0.754400     0.00000    1.000000
     36 C     c    0.308580    0.048180    0.478910     0.00000    1.000000
     37 C     c    0.161340    0.686390    0.380010     0.00000    1.000000
     38 C     c    0.521330    0.257160    0.918180     0.00000    1.000000
     39 C     c    0.040090    0.082030    0.078210     0.00000    1.000000
     40 C     c    0.741840    0.885350    0.763610     0.00000    1.000000
     41 C     c    0.366090    0.504910    0.483910     0.00000    1.000000
     42 C     c    0.053540    0.848140    0.463840     0.00000    1.000000
     43 C     c    0.030810    0.386410    0.945120     0.00000    1.000000
     44 C     c    0.201880    0.430840    0.082200     0.00000    1.000000
     45 C     c    0.160880    0.629030    0.728960     0.00000    1.000000
     46 C     c    0.876710    0.481050    0.053200     0.00000    1.000000
     47 C     c    0.778090    0.809760    0.115280     0.00000    1.000000
     48 C     c    0.965730    0.186070    0.918800     0.00000    1.000000
     49 C     c    0.764720    0.752700    0.312300     0.00000    1.000000
     50 C     c    0.788770    0.646840    0.985340     0.00000    1.000000
     51 C     c    0.140930    0.989370    0.579840     0.00000    1.000000
     52 C     c    0.452330    0.211120    0.236790     0.00000    1.000000
     53 C     c    0.405450    0.339190    0.075610     0.00000    1.000000
     54 C     c    0.345940    0.031270    0.261550     0.00000    1.000000
     55 C     c    0.601910    0.215350    0.350820     0.00000    1.000000
     56 C     c    0.404020    0.153190    0.794260     0.00000    1.000000
     57 C     c    0.619010    0.400770    0.813340     0.00000    1.000000
     58 C     c    0.717590    0.910540    0.568920     0.00000    1.000000
     59 C     c    0.083610    0.760290    0.025950     0.00000    1.000000
     60 C     c    0.578930    0.472880    0.218730     0.00000    1.000000
     61 C     c    0.559940    0.754290    0.351570     0.00000    1.000000
     62 C     c    0.009160    0.158020    0.575440     0.00000    1.000000
     63 C     c    0.606850    0.585620    0.897610     0.00000    1.000000
     64 C     c    0.554390    0.769980    0.810920     0.00000    1.000000

  Brillouin zone sampling points :

  Point number          x          y          z            Weight
        1           0.062500   0.062500   0.062500     0.00390625
        2           0.062500   0.062500   0.187500     0.00390625
        3           0.062500   0.062500   0.312500     0.00390625
        4           0.062500   0.062500   0.437500     0.00390625
        5           0.062500   0.062500   0.562500     0.00390625
        6           0.062500   0.062500   0.687500     0.00390625
        7           0.062500   0.062500   0.812500     0.00390625
        8           0.062500   0.062500   0.937500     0.00390625
        9           0.062500   0.187500   0.062500     0.00390625
       10           0.062500   0.187500   0.187500     0.00390625
       11           0.062500   0.187500   0.312500     0.00390625
       12           0.062500   0.187500   0.437500     0.00390625
       13           0.062500   0.187500   0.562500     0.00390625
       14           0.062500   0.187500   0.687500     0.00390625
       15           0.062500   0.187500   0.812500     0.00390625
       16           0.062500   0.187500   0.937500     0.00390625
       17           0.062500   0.312500   0.062500     0.00390625
       18           0.062500   0.312500   0.187500     0.00390625
       19           0.062500   0.312500   0.312500     0.00390625
       20           0.062500   0.312500   0.437500     0.00390625
       21           0.062500   0.312500   0.562500     0.00390625
       22           0.062500   0.312500   0.687500     0.00390625
       23           0.062500   0.312500   0.812500     0.00390625
       24           0.062500   0.312500   0.937500     0.00390625
       25           0.062500   0.437500   0.062500     0.00390625
       26           0.062500   0.437500   0.187500     0.00390625
       27           0.062500   0.437500   0.312500     0.00390625
       28           0.062500   0.437500   0.437500     0.00390625
       29           0.062500   0.437500   0.562500     0.00390625
       30           0.062500   0.437500   0.687500     0.00390625
       31           0.062500   0.437500   0.812500     0.00390625
       32           0.062500   0.437500   0.937500     0.00390625
       33           0.062500   0.562500   0.062500     0.00390625
       34           0.062500   0.562500   0.187500     0.00390625
       35           0.062500   0.562500   0.312500     0.00390625
       36           0.062500   0.562500   0.437500     0.00390625
       37           0.062500   0.562500   0.562500     0.00390625
       38           0.062500   0.562500   0.687500     0.00390625
       39           0.062500   0.562500   0.812500     0.00390625
       40           0.062500   0.562500   0.937500     0.00390625
       41           0.062500   0.687500   0.062500     0.00390625
       42           0.062500   0.687500   0.187500     0.00390625
       43           0.062500   0.687500   0.312500     0.00390625
       44           0.062500   0.687500   0.437500     0.00390625
       45           0.062500   0.687500   0.562500     0.00390625
       46           0.062500   0.687500   0.687500     0.00390625
       47           0.062500   0.687500   0.812500     0.00390625
       48           0.062500   0.687500   0.937500     0.00390625
       49           0.062500   0.812500   0.062500     0.00390625
       50           0.062500   0.812500   0.187500     0.00390625
       51           0.062500   0.812500   0.312500     0.00390625
       52           0.062500   0.812500   0.437500     0.00390625
       53           0.062500   0.812500   0.562500     0.00390625
       54           0.062500   0.812500   0.687500     0.00390625
       55           0.062500   0.812500   0.812500     0.00390625
       56           0.062500   0.812500   0.937500     0.00390625
       57           0.062500   0.937500   0.062500     0.00390625
       58           0.062500   0.937500   0.187500     0.00390625
       59           0.062500   0.937500   0.312500     0.00390625
       60           0.062500   0.937500   0.437500     0.00390625
[...]
      242           0.437500   0.812500   0.187500     0.00390625
      243           0.437500   0.812500   0.312500     0.00390625
      244           0.437500   0.812500   0.437500     0.00390625
      245           0.437500   0.812500   0.562500     0.00390625
      246           0.437500   0.812500   0.687500     0.00390625
      247           0.437500   0.812500   0.812500     0.00390625
      248           0.437500   0.812500   0.937500     0.00390625
      249           0.437500   0.937500   0.062500     0.00390625
      250           0.437500   0.937500   0.187500     0.00390625
      251           0.437500   0.937500   0.312500     0.00390625
      252           0.437500   0.937500   0.437500     0.00390625
      253           0.437500   0.937500   0.562500     0.00390625
      254           0.437500   0.937500   0.687500     0.00390625
      255           0.437500   0.937500   0.812500     0.00390625
      256           0.437500   0.937500   0.937500     0.00390625

*  General input information                                                   *

  Species output for all configurations :

  Species    Type    Atomic    Atomic    Charge       Radii (Angs)     Library
                     Number     Mass       (e)     Cova   Ionic  VDW   Symbol
    C        Core        6      12.01   0.000000   0.770  0.000  1.530

  Lattice summation method               =    Ewald          (3-D)
                                         =    Parry          (2-D)
                                         =    Saunders et al (1-D)
  Accuracy factor for lattice sums       =   12.000

  Analytic derivatives to be used

  Time limit = Infinity

  Maximum range for interatomic potentials =    100000.000000 Angstroms

  Brenner et al 2002 potential to be used with explicit splines for P

*  Output for configuration   1                                                *

  Components of energy :

  Interatomic potentials     =           0.00000000 eV
  Brenner potentials         =        -423.02599990 eV
  Monopole - monopole (real) =           0.00000000 eV
  Monopole - monopole (recip)=           0.00000000 eV
  Monopole - monopole (total)=           0.00000000 eV
  Total lattice energy       =        -423.02599990 eV
  Total lattice energy       =          -40815.5424 kJ/(mole unit cells)

  Elastic Constant Matrix: (Units=GPa)

  Indices      1         2         3         4         5         6
       1    429.6089  174.8166  210.8191   23.4848  -34.1211   14.9334
       2    174.8166  491.1807  111.3778    6.5684    7.7971   49.1493
       3    210.8191  111.3778  592.3577  -15.9159  -30.3556  -15.2211
       4     23.4848    6.5684  -15.9159  143.6541   12.0848   -6.9088
       5    -34.1211    7.7971  -30.3556   12.0848  183.7952    8.3127
       6     14.9334   49.1493  -15.2211   -6.9088    8.3127  155.3288

  Elastic Compliance Matrix: (Units=1/GPa)

  Indices      1         2         3         4         5         6
       1    0.003271 -0.000923 -0.000985 -0.000655  0.000535 -0.000177
       2   -0.000923  0.002477 -0.000169  0.000008 -0.000273 -0.000696
       3   -0.000985 -0.000169  0.002098  0.000408  0.000127  0.000365
       4   -0.000655  0.000008  0.000408  0.007181 -0.000547  0.000449
       5    0.000535 -0.000273  0.000127 -0.000547  0.005621 -0.000278
       6   -0.000177 -0.000696  0.000365  0.000449 -0.000278  0.006746

  Mechanical properties :

  Convention :                    Reuss         Voigt         Hill
  Bulk  Modulus (GPa)     =     270.93365     278.57494     274.75429
  Shear Modulus (GPa)     =     152.54135     164.29788     158.41961
  Velocity S-wave (km/s)  =       7.26055       7.53515       7.39912
  Velocity P-wave (km/s)  =      12.80302      13.11393      12.95941
  Compressibility (1/GPa) =    0.00369094
  Stress axis :                     x             y             z
  Youngs Moduli (GPa)     =     305.69318     403.78292     476.75412
  Poissons Ratio (x)      =                     0.37263       0.46982
  Poissons Ratio (y)      =       0.28211                     0.08052
  Poissons Ratio (z)      =       0.30125       0.06820

  Piezoelectric Strain Matrix: (Units=C/m**2)

  Indices      1         2         3         4         5         6
       x    -0.00000  -0.00000  -0.00000  -0.00000  -0.00000  -0.00000
       y    -0.00000  -0.00000  -0.00000  -0.00000  -0.00000  -0.00000
       z    -0.00000  -0.00000  -0.00000  -0.00000  -0.00000  -0.00000

  Piezoelectric Stress Matrix: (Units=10**-11 C/N)

  Indices      1         2         3         4         5         6
       x     0.00000   0.00000   0.00000   0.00000   0.00000   0.00000
       y     0.00000   0.00000   0.00000   0.00000   0.00000   0.00000
       z     0.00000   0.00000   0.00000   0.00000   0.00000   0.00000

  Static dielectric constant tensor :

              x         y         z
       x     1.00000   0.00000   0.00000
       y     0.00000   1.00000   0.00000
       z     0.00000   0.00000   1.00000

  Static refractive indices :

    1 =    1.00000      2 =    1.00000      3 =    1.00000

  Phonon Calculation :

  Number of k points for this configuration =      256

  K point      1 =   0.062500  0.062500  0.062500  Weight =    0.004

  Frequencies (cm-1) [NB: Negative implies an imaginary mode]:

[...]

  K point    256 =   0.437500  0.937500  0.937500  Weight =    0.004

  Frequencies (cm-1) [NB: Negative implies an imaginary mode]:

  122.23  134.66  160.37  177.57  208.23  227.54  252.05  261.91  270.86
  276.01  280.45  286.74  300.94  308.38  318.56  328.48  338.35  344.15
  352.01  359.41  373.79  376.22  382.72  392.57  402.11  408.88  413.64
  419.42  426.54  434.47  445.86  448.93  457.42  469.41  475.46  483.93
  489.33  497.78  501.79  510.37  518.33  523.86  526.76  531.49  541.58
  550.39  555.28  556.64  570.10  579.77  583.23  591.04  596.23  599.19
  607.04  610.84  616.15  622.03  634.18  639.48  649.08  661.06  666.02
  667.82  677.46  683.17  688.43  694.61  702.04  707.10  714.06  720.44
  729.95  735.65  742.62  745.11  755.23  762.65  766.20  774.37  780.05
  781.87  788.83  797.02  802.55  812.23  816.90  825.84  833.34  840.18
  843.99  862.36  875.32  879.34  882.90  890.66  901.92  904.76  907.14
  921.62  928.32  938.04  944.27  952.44  958.31  966.03  973.38  980.66
  988.65  994.20 1004.09 1010.21 1022.19 1028.89 1034.80 1043.19 1051.45
 1055.04 1062.52 1073.48 1078.23 1082.36 1091.83 1095.88 1108.67 1117.49
 1123.74 1131.68 1137.92 1146.93 1152.84 1159.14 1171.90 1180.49 1185.89
 1191.19 1196.84 1202.63 1210.95 1219.66 1226.70 1233.19 1237.90 1245.92
 1251.09 1258.18 1270.04 1276.96 1278.08 1286.44 1295.09 1307.63 1319.68
 1330.83 1336.65 1340.81 1354.43 1364.65 1372.62 1377.11 1383.67 1395.93
 1404.50 1424.30 1444.15 1447.31 1479.41 1484.60 1499.09 1504.00 1517.88
 1569.29 1590.00 1608.75 1614.06 1629.70 1637.79 1662.60 1683.24 1698.99
 1786.03 1793.83 1796.15 1898.26 1937.13 1948.71 2174.57 2410.70 2677.65
 2766.82 2848.49 2944.18

  Phonon properties (per mole of unit cells): Temperature =      0.000 K
  Zero point energy            =       11.377922 eV

  Time to end of properties =      46.9884 seconds

  Timing analysis for GULP :

  Task / Subroutine                                          Time (Seconds)
  Calculation of real space energy and derivatives                0.0459
  Calculation of Brenner energy and derivatives                  40.3329
  Calculation of phonons                                         46.7858
  Calculation of matrix inversion                                 0.0001
  Disk read/write operations to scratch files                     0.1381

  Job Finished at 14:18.48 31st July       2020