  Job Started  at 10:54.33 21st February   2021

  Number of CPUs =    20

  Total number of configurations input =      1

*  Input for Configuration =   1                                               *

  Formula = C512

  Number of irreducible atoms/shells =     512

  Total number atoms/shells =     512

  Dimensionality = 3               :  Bulk

  Cartesian lattice vectors (Angstroms) :

       14.786300    0.000000    0.000000
        0.000000   14.786300    0.000000
        0.000000    0.000000   14.786300

  Cell parameters (Angstroms/Degrees):

  a =      14.7863    alpha =  90.0000
  b =      14.7863    beta  =  90.0000
  c =      14.7863    gamma =  90.0000

  Initial cell volume =        3232.797787 Angs**3

  Temperature of configuration =  0.000     K

  Pressure of configuration =         0.000 GPa

  Fractional coordinates of asymmetric unit :

   No.  Atomic       x           y          z         Charge      Occupancy
        Label      (Frac)      (Frac)     (Frac)        (e)         (Frac)
      1 C     c    0.308750 *  0.396860 *  0.174290 *   0.00000    1.000000
      2 C     c    0.924360 *  0.014680 *  0.698930 *   0.00000    1.000000
      3 C     c    0.823330 *  0.279700 *  0.213940 *   0.00000    1.000000
      4 C     c    0.335830 *  0.536530 *  0.053870 *   0.00000    1.000000
      5 C     c    0.695940 *  0.971990 *  0.886900 *   0.00000    1.000000
      6 C     c    0.271060 *  0.308530 *  0.506600 *   0.00000    1.000000
      7 C     c    0.108670 *  0.990120 *  0.318190 *   0.00000    1.000000
      8 C     c    0.223840 *  0.965790 *  0.026300 *   0.00000    1.000000
      9 C     c    0.870330 *  0.216000 *  0.875670 *   0.00000    1.000000
     10 C     c    0.082130 *  0.901300 *  0.130330 *   0.00000    1.000000
     11 C     c    0.075170 *  0.603420 *  0.951940 *   0.00000    1.000000
     12 C     c    0.402410 *  0.282560 *  0.811120 *   0.00000    1.000000
     13 C     c    0.522450 *  0.090840 *  0.116820 *   0.00000    1.000000
     14 C     c    0.042940 *  0.488910 *  0.821240 *   0.00000    1.000000
     15 C     c    0.082110 *  0.147160 *  0.410820 *   0.00000    1.000000
     16 C     c    0.071800 *  0.553580 *  0.659770 *   0.00000    1.000000
     17 C     c    0.884970 *  0.135250 *  0.408790 *   0.00000    1.000000
     18 C     c    0.832690 *  0.459190 *  0.977920 *   0.00000    1.000000
     19 C     c    0.604310 *  0.341120 *  0.145840 *   0.00000    1.000000
     20 C     c    0.690110 *  0.878250 *  0.313650 *   0.00000    1.000000
     21 C     c    0.930180 *  0.813970 *  0.307210 *   0.00000    1.000000
     22 C     c    0.843830 *  0.490820 *  0.590500 *   0.00000    1.000000
     23 C     c    0.531260 *  0.766160 *  0.033760 *   0.00000    1.000000
     24 C     c    0.654280 *  0.785810 *  0.745070 *   0.00000    1.000000
     25 C     c    0.813010 *  0.044890 *  0.275550 *   0.00000    1.000000
     26 C     c    0.267280 *  0.038720 *  0.464500 *   0.00000    1.000000
     27 C     c    0.866910 *  0.868070 *  0.533480 *   0.00000    1.000000
     28 C     c    0.363680 *  0.516080 *  0.662940 *   0.00000    1.000000
     29 C     c    0.442230 *  0.803390 *  0.896890 *   0.00000    1.000000
     30 C     c    0.187550 *  0.015270 *  0.775040 *   0.00000    1.000000
     31 C     c    0.866800 *  0.156690 *  0.968380 *   0.00000    1.000000
     32 C     c    0.766990 *  0.739700 *  0.380800 *   0.00000    1.000000
     33 C     c    0.995250 *  0.043510 *  0.619620 *   0.00000    1.000000
     34 C     c    0.019360 *  0.174390 *  0.819720 *   0.00000    1.000000
     35 C     c    0.806000 *  0.590450 *  0.751240 *   0.00000    1.000000
     36 C     c    0.942500 *  0.074180 *  0.133430 *   0.00000    1.000000
     37 C     c    0.213230 *  0.086820 *  0.640990 *   0.00000    1.000000
     38 C     c    0.770100 *  0.842130 *  0.863150 *   0.00000    1.000000
     39 C     c    0.539350 *  0.935730 *  0.163280 *   0.00000    1.000000
     40 C     c    0.544810 *  0.088560 *  0.816270 *   0.00000    1.000000
     41 C     c    0.588860 *  0.015190 *  0.889690 *   0.00000    1.000000
     42 C     c    0.107370 *  0.109040 *  0.206800 *   0.00000    1.000000
     43 C     c    0.270650 *  0.649730 *  0.296410 *   0.00000    1.000000
     44 C     c    0.612250 *  0.471540 *  0.464420 *   0.00000    1.000000
     45 C     c    0.134900 *  0.193430 *  0.473320 *   0.00000    1.000000
     46 C     c    0.601920 *  0.303820 *  0.324460 *   0.00000    1.000000
     47 C     c    0.970630 *  0.370950 *  0.284700 *   0.00000    1.000000
     48 C     c    0.442200 *  0.480360 *  0.421410 *   0.00000    1.000000
     49 C     c    0.785500 *  0.751640 *  0.064020 *   0.00000    1.000000
     50 C     c    0.592700 *  0.458800 *  0.603730 *   0.00000    1.000000
     51 C     c    0.096050 *  0.870080 *  0.882790 *   0.00000    1.000000
     52 C     c    0.690830 *  0.355580 *  0.329080 *   0.00000    1.000000
     53 C     c    0.702680 *  0.692330 *  0.310640 *   0.00000    1.000000
     54 C     c    0.196670 *  0.904110 *  0.619980 *   0.00000    1.000000
     55 C     c    0.716700 *  0.423130 *  0.836990 *   0.00000    1.000000
     56 C     c    0.142150 *  0.451990 *  0.211200 *   0.00000    1.000000
     57 C     c    0.111100 *  0.431810 *  0.977650 *   0.00000    1.000000
     58 C     c    0.488780 *  0.612510 *  0.504010 *   0.00000    1.000000
     59 C     c    0.756290 *  0.457700 *  0.202510 *   0.00000    1.000000
     60 C     c    0.226360 *  0.187530 *  0.362480 *   0.00000    1.000000
[...]
    497 C     c    0.861720 *  0.849100 *  0.233580 *   0.00000    1.000000
    498 C     c    0.417250 *  0.220610 *  0.439220 *   0.00000    1.000000
    499 C     c    0.213120 *  0.615620 *  0.458690 *   0.00000    1.000000
    500 C     c    0.101240 *  0.475350 *  0.489600 *   0.00000    1.000000
    501 C     c    0.788840 *  0.701170 *  0.477790 *   0.00000    1.000000
    502 C     c    0.911930 *  0.900310 *  0.707630 *   0.00000    1.000000
    503 C     c    0.323080 *  0.408040 *  0.280570 *   0.00000    1.000000
    504 C     c    0.154910 *  0.209960 *  0.286300 *   0.00000    1.000000
    505 C     c    0.946910 *  0.084100 *  0.951040 *   0.00000    1.000000
    506 C     c    0.805990 *  0.454000 *  0.686160 *   0.00000    1.000000
    507 C     c    0.397910 *  0.713290 *  0.673440 *   0.00000    1.000000
    508 C     c    0.179840 *  0.858860 *  0.406710 *   0.00000    1.000000
    509 C     c    0.043110 *  0.880590 *  0.606240 *   0.00000    1.000000
    510 C     c    0.231300 *  0.301350 *  0.801890 *   0.00000    1.000000
    511 C     c    0.872840 *  0.589510 *  0.561100 *   0.00000    1.000000
    512 C     c    0.089070    0.037610    0.417460     0.00000    1.000000

  Constraints :

  Constraint no.      Unconstrained     Constrained    Coefficient    Offset
                         Variable         Variable
           1              Strain 1        Strain 2       1.00000      0.0000
           2              Strain 1        Strain 3       1.00000      0.0000

  Brillouin zone sampling points :

  Point number          x          y          z            Weight
        1           0.000000   0.000000   0.000000     1.00000000

*  General input information                                                   *

  Species output for all configurations :

  Species    Type    Atomic    Atomic    Charge       Radii (Angs)     Library
                     Number     Mass       (e)     Cova   Ionic  VDW   Symbol
    C        Core        6      12.01   0.000000   0.770  0.000  1.530

  Lattice summation method               =    Ewald          (3-D)
                                         =    Parry          (2-D)
                                         =    Saunders et al (1-D)
  Accuracy factor for lattice sums       =   12.000

  Time limit = Infinity

  Maximum range for interatomic potentials =    100000.000000 Angstroms

  Brenner et al 2002 potential to be used with explicit splines for P

*  Output for configuration   1                                                *

  Components of energy :

  Interatomic potentials     =           0.00000000 eV
  Brenner potentials         =       -3367.82842767 eV
  Monopole - monopole (real) =           0.00000000 eV
  Monopole - monopole (recip)=           0.00000000 eV
  Monopole - monopole (total)=           0.00000000 eV
  Total lattice energy       =       -3367.82842767 eV
  Total lattice energy       =         -324943.9613 kJ/(mole unit cells)

  Number of variables =     1534

  Maximum number of calculations  =          2000
  Maximum Hessian update interval =            10
  Maximum step size               =   1.000000000
  Maximum parameter tolerance     =   0.000010000
  Maximum function  tolerance     =   0.000010000
  Maximum gradient  tolerance     =   0.001000000
  Maximum gradient  component     =   0.010000000

  Symmetry not applied to optimisation

  Cell parameters to be optimised using strains

  Conjugate gradient optimiser to be used

  General 2-D hessian to be used

  Start of bulk optimisation :

  **** Optimisation achieved ****

  Final energy =   -3367.82848446 eV
  Final Gnorm  =       0.00053606

  Components of energy :

  Interatomic potentials     =           0.00000000 eV
  Brenner potentials         =       -3367.82848446 eV
  Monopole - monopole (real) =           0.00000000 eV
  Monopole - monopole (recip)=           0.00000000 eV
  Monopole - monopole (total)=           0.00000000 eV
  Total lattice energy       =       -3367.82848446 eV
  Total lattice energy       =         -324943.9668 kJ/(mole unit cells)

  Final fractional coordinates of atoms :

   No.  Atomic        x           y          z          Radius
        Label       (Frac)      (Frac)     (Frac)       (Angs)
     1  C     c     0.308751    0.396857    0.174292    0.000000
     2  C     c     0.924358    0.014678    0.698932    0.000000
     3  C     c     0.823331    0.279699    0.213940    0.000000
     4  C     c     0.335829    0.536529    0.053872    0.000000
     5  C     c     0.695940    0.971992    0.886902    0.000000
     6  C     c     0.271061    0.308532    0.506600    0.000000
     7  C     c     0.108669    0.990119    0.318191    0.000000
     8  C     c     0.223837    0.965791    0.026299    0.000000
     9  C     c     0.870328    0.215999    0.875669    0.000000
    10  C     c     0.082131    0.901300    0.130329    0.000000
    11  C     c     0.075170    0.603420    0.951939    0.000000
    12  C     c     0.402409    0.282560    0.811122    0.000000
    13  C     c     0.522450    0.090837    0.116820    0.000000
    14  C     c     0.042940    0.488910    0.821238    0.000000
    15  C     c     0.082110    0.147159    0.410820    0.000000
    16  C     c     0.071799    0.553580    0.659768    0.000000
    17  C     c     0.884970    0.135248    0.408790    0.000000
    18  C     c     0.832691    0.459192    0.977921    0.000000
    19  C     c     0.604309    0.341120    0.145839    0.000000
    20  C     c     0.690111    0.878251    0.313651    0.000000
[...]
     46 C     c       0.137330      0.094774      0.034484      0.000000
     47 C     c      -0.001943      0.014975     -0.028775      0.000000
     48 C     c      -0.013939     -0.016844     -0.017433      0.000000
     49 C     c       0.021595     -0.009572      0.007090      0.000000
     50 C     c      -0.007893     -0.022051      0.015426      0.000000
     51 C     c      -0.002621     -0.011812     -0.006456      0.000000
     52 C     c       0.255120      0.068956      0.175647      0.000000
     53 C     c      -0.011103      0.003572      0.010694      0.000000
     54 C     c      -0.004252     -0.019457      0.019131      0.000000
     55 C     c      -0.003539     -0.022114     -0.022406      0.000000
     56 C     c       0.016699      0.009350     -0.019664      0.000000
     57 C     c       0.000172      0.004482     -0.021312      0.000000
     58 C     c       0.017446      0.001816     -0.007033      0.000000
     59 C     c       0.001878     -0.013650      0.003961      0.000000
     60 C     c      -0.009660      0.011144      0.003456      0.000000
[...]
    498 C     c       0.019969      0.007924      0.003321      0.000000
    499 C     c      -0.024388     -0.007259      0.013964      0.000000
    500 C     c      -0.004436      0.000770     -0.010401      0.000000
    501 C     c       0.014321     -0.001247     -0.004251      0.000000
    502 C     c      -0.001770     -0.000362      0.009843      0.000000
    503 C     c      -0.007616      0.003674     -0.023311      0.000000
    504 C     c       0.010406      0.006130     -0.001014      0.000000
    505 C     c      -0.012067      0.023959     -0.004577      0.000000
    506 C     c      -0.001113      0.012158      0.022625      0.000000
    507 C     c      -0.003146      0.015887     -0.000979      0.000000
    508 C     c      -0.001915      0.000566     -0.009363      0.000000
    509 C     c      -0.010084      0.002191      0.011601      0.000000
    510 C     c       0.004099     -0.014359     -0.001661      0.000000
    511 C     c      -0.004340      0.004787      0.005113      0.000000
    512 C     c       0.000000      0.000000      0.000000      0.000000
  Maximum abs         0.360101      0.245910      0.179712      0.000000

  Elastic Constant Matrix: (Units=GPa)

  Indices      1         2         3         4         5         6
       1    518.3456  206.2526  204.9303  -17.1798    5.9280    4.8021
       2    206.2526  495.9167  229.5995  -17.6325   -0.1775   10.3216
       3    204.9303  229.5995  545.1892  -13.8931    8.2552    3.7975
       4    -17.1798  -17.6325  -13.8931  147.8369    2.9520   12.2654
       5      5.9280   -0.1775    8.2552    2.9520  150.3986  -10.7372
       6      4.8021   10.3216    3.7975   12.2654  -10.7372  150.7645

  Elastic Constant Tensor Eigenvalues: (Units=GPa)

     1 =   130.9166     2 =   151.7571     3 =   164.5457
     4 =   285.0896     5 =   327.0985     6 =   949.0442

  Elastic Compliance Matrix: (Units=1/GPa)

  Indices      1         2         3         4         5         6
       1    0.002471 -0.000738 -0.000613  0.000145 -0.000070 -0.000030
       2   -0.000738  0.002736 -0.000870  0.000170  0.000066 -0.000151
       3   -0.000613 -0.000870  0.002434  0.000056 -0.000111  0.000005
       4    0.000145  0.000170  0.000056  0.006859 -0.000185 -0.000589
       5   -0.000070  0.000066 -0.000111 -0.000185  0.006697  0.000492
       6   -0.000030 -0.000151  0.000005 -0.000589  0.000492  0.006727

  Mechanical properties :

  Convention :                    Reuss         Voigt         Hill
  Bulk  Modulus (GPa)     =     312.68552     315.66848     314.17700
  Shear Modulus (GPa)     =     149.55410     151.04461     150.29936
  Velocity S-wave (km/s)  =       6.88108       6.91528       6.89820
  Velocity P-wave (km/s)  =      12.73301      12.79465      12.76387
  Compressibility (1/GPa) =    0.00319810
  Stress axis :                     x             y             z
  Youngs Moduli (GPa)     =     404.66092     365.55457     410.81317
  Poissons Ratio (x)      =                     0.26985       0.25185
  Poissons Ratio (y)      =       0.29872                     0.35749
  Poissons Ratio (z)      =       0.24808       0.31810

  Piezoelectric Strain Matrix: (Units=C/m**2)

  Indices      1         2         3         4         5         6
       x    -0.00000  -0.00000  -0.00000  -0.00000  -0.00000  -0.00000
       y    -0.00000  -0.00000  -0.00000  -0.00000  -0.00000  -0.00000
       z    -0.00000  -0.00000  -0.00000  -0.00000  -0.00000  -0.00000

  Piezoelectric Stress Matrix: (Units=10**-11 C/N)

  Indices      1         2         3         4         5         6
       x     0.00000   0.00000   0.00000   0.00000   0.00000   0.00000
       y     0.00000   0.00000   0.00000   0.00000   0.00000   0.00000
       z     0.00000   0.00000   0.00000   0.00000   0.00000   0.00000

  Static dielectric constant tensor :

              x         y         z
       x     1.00000   0.00000   0.00000
       y     0.00000   1.00000   0.00000
       z     0.00000   0.00000   1.00000

  Static refractive indices :

    1 =    1.00000      2 =    1.00000      3 =    1.00000

  Phonon Calculation :

  Number of k points for this configuration =        1

  K point      1 =   0.000000  0.000000  0.000000  Weight =    1.000

  Frequencies (cm-1) [NB: Negative implies an imaginary mode]:

   -0.00    0.00    0.00   80.49  100.77  108.61  119.64  121.18  128.30
  135.24  139.23  139.87  141.63  144.77  149.68  151.63  153.18  158.42
  160.29  162.13  166.76  167.43  173.31  174.44  177.59  180.07  181.86
  184.39  185.32  188.28  188.75  190.89  193.53  197.79  199.95  202.90
  205.59  206.69  208.59  209.99  211.48  212.74  213.94  215.22  220.24
  221.64  223.01  225.44  226.18  227.22  228.77  230.85  232.26  235.09
  236.75  239.22  240.36  242.10  244.59  245.06  246.40  248.06  250.53
  252.11  252.85  254.61  257.46  258.12  262.11  262.97  264.51  265.11
  267.62  268.35  270.45  272.63  273.26  273.81  275.25  276.95  279.46
  280.90  281.83  283.06  285.13  285.49  286.26  287.14  288.33  289.24
  292.26  293.55  295.14  295.94  297.47  298.12  299.32  301.65  304.15
  305.50  307.25  307.66  307.87  308.17  311.00  312.32  313.15  313.93
  316.19  317.07  318.00  319.56  321.41  321.73  322.96  323.41  325.87
  327.65  328.18  328.93  329.77  330.14  331.16  332.24  332.71  333.66
  336.40  337.03  337.48  338.47  339.99  341.74  342.15  343.46  344.38
  346.92  347.88  348.79  349.57  351.14  352.02  353.03  353.71  354.54
  356.65  357.43  358.05  358.79  359.36  360.45  361.40  362.30  362.67
  363.83  366.21  367.15  368.50  368.93  369.78  371.31  372.33  372.65
  374.63  374.81  375.61  376.58  377.30  378.86  380.17  381.09  381.72
  383.49  384.52  385.53  386.07  386.90  388.86  389.24  390.88  391.40
  392.19  393.98  394.23  394.82  395.88  395.97  396.84  398.05  398.28
  400.11  400.72  401.90  402.32  402.97  404.81  406.02  406.88  407.31
  408.97  409.89  411.32  412.54  412.87  414.15  415.10  415.86  416.40
  418.25  418.28  419.69  421.24  421.92  422.42  423.92  425.33  425.82
  426.53  428.66  429.53  430.59  432.02  432.38  433.50  434.04  435.45
  436.65  437.81  438.38  439.48  439.82  440.42  441.72  442.54  443.13
  444.77  444.94  446.03  447.48  447.61  448.74  449.89  450.40  451.22
  452.25  452.68  454.19  454.86  456.02  457.30  457.90  458.66  459.95
  461.31  461.72  464.32  465.08  465.66  466.32  467.74  468.51  468.80
  470.44  471.47  472.13  473.34  473.66  475.53  476.21  476.46  477.81
  478.79  479.39  479.97  481.90  482.54  483.58  484.26  484.46  485.15
  486.74  486.94  488.95  489.47  490.36  492.45  493.36  493.92  494.47
  495.65  496.34  497.04  498.39  498.71  499.01  501.31  501.85  503.10
  503.77  504.17  505.46  506.31  506.90  509.01  509.84  510.93  511.94
  512.05  512.93  514.09  515.06  515.81  516.61  517.52  518.55  518.87
  519.81  521.73  522.37  523.14  524.02  525.00  525.24  526.55  527.95
  529.01  529.17  530.39  530.95  532.12  532.49  533.29  534.93  535.33
  536.44  536.85  537.35  537.77  538.82  540.30  541.96  542.71  543.20
  543.63  543.94  545.39  545.65  547.11  548.39  548.80  550.22  550.90
  551.68  552.61  553.25  554.11  554.53  556.57  557.90  558.22  558.88
  559.20  560.10  562.11  562.56  563.78  565.41  565.70  566.49  567.87
  568.10  569.08  570.24  571.37  571.68  574.56  574.73  575.16  576.44
  578.37  578.93  579.97  580.62  581.65  582.09  582.49  583.55  584.69
  584.77  585.70  587.98  588.18  589.50  590.37  591.38  592.49  593.22
  593.88  594.99  595.95  596.02  596.50  598.30  598.96  599.38  600.64
  602.14  602.63  603.51  604.03  604.58  605.51  605.72  606.76  607.83
  608.31  609.83  611.12  612.09  612.47  612.68  613.31  614.15  616.31
  616.84  617.18  617.32  618.59  620.22  620.96  621.51  623.53  624.23
  625.05  626.48  627.60  627.90  629.58  629.82  630.45  631.11  632.57
  633.07  634.07  635.40  636.73  637.01  638.46  639.40  640.17  640.64
  641.66  641.81  642.81  643.66  644.69  646.63  646.92  647.55  648.27
  649.14  649.98  650.55  651.91  652.45  652.60  654.81  655.16  655.56
  657.25  658.35  659.71  659.96  660.60  661.11  662.84  663.53  665.20
  665.62  665.91  666.87  668.13  668.98  669.72  672.75  673.07  673.31
  674.34  674.52  676.45  677.37  678.00  678.81  679.48  681.17  682.05
  682.47  683.51  684.81  685.40  685.83  687.20  687.45  689.58  690.48
  691.45  691.77  692.45  693.50  694.56  695.47  695.91  696.43  697.47
  698.87  699.78  700.53  701.46  702.20  704.01  704.73  705.70  707.09
  707.42  707.83  708.90  709.97  710.77  712.35  712.89  713.99  714.52
  715.32  716.46  716.70  717.88  719.14  720.09  720.64  721.72  723.67
[...]
 1832.41 1844.55 1847.57 1863.94 1875.21 1900.46 1903.35 1925.43 1940.29
 1950.47 1971.56 1972.46 1973.85 1975.04 1985.94 1990.86 1994.20 2009.68
 2019.10 2034.27 2046.25 2048.91 2048.96 2060.06 2070.67 2096.05 2099.62
 2119.10 2122.62 2125.44 2140.42 2159.88 2163.53 2172.89 2174.49 2185.22
 2188.84 2190.22 2197.94 2203.34 2220.38 2222.09 2226.62 2235.74 2251.69
 2279.30 2283.81 2374.50 2378.85 2379.33 2382.33 2389.11 2424.73 2431.69
 2455.28 2502.58 2503.43 2504.86 2513.55 2537.65 2547.01 2561.38 2592.80
 2615.54 2628.82 2628.99 2629.42 2635.70 2651.83 2655.50 2662.22 2666.78
 2678.49 2711.00 2738.57 2746.81 2747.72 2751.83 2755.39 2778.69 2791.47
 2831.36 2835.37 2848.25 2850.21 2854.54 2856.53 2862.17 2892.37 2894.96
 2899.77 2901.91 2948.20 2953.37 2966.66 2970.72 2974.51 2981.30 2989.42
 2998.58 3005.67 3013.03 3014.21 3021.30 3024.68 3030.75 3040.01 3041.46
 3044.88 3046.47 3051.46 3065.25 3096.57 3099.67 3150.46 3160.76 3237.25
 3254.75 3259.47 3261.69 3271.32 3296.92 3300.60 3309.96 3313.83 3316.54
 3404.02 3478.74 3483.97 3490.78 3548.60 3875.82

  Phonon properties (per mole of unit cells): Temperature =      0.000 K
  Zero point energy            =       97.091949 eV

  Phonon density of states :

 Frequency (cm-1) Density of States
    0.00000 |*                                                             0.001
   60.55964 |***                                                           0.003
  121.11929 |**************                                                0.012
  181.67893 |************************                                      0.021
  242.23858 |*******************************                               0.026
  302.79822 |******************************************                    0.036
  363.35787 |**********************************************                0.039
  423.91751 |**************************************************            0.042
  484.47716 |***************************************************           0.043
  545.03680 |****************************************************          0.044
  605.59645 |****************************************************          0.044
  666.15609 |*************************************************             0.042
  726.71574 |****************************************************          0.044
  787.27538 |**************************************************            0.042
  847.83503 |****************************************************          0.044
  908.39467 |****************************************************          0.044
  968.95432 |******************************************************        0.046
 1029.51396 |********************************************************      0.047
 1090.07361 |************************************************************  0.050
 1150.63325 |*****************************************************         0.045
 1211.19289 |************************************************              0.040
 1271.75254 |*********************************************                 0.038
 1332.31218 |******************************************                    0.035
 1392.87183 |********************************                              0.027
 1453.43147 |************************                                      0.021
 1513.99112 |**************                                                0.012
 1574.55076 |**********                                                    0.008
 1635.11041 |*******                                                       0.007
 1695.67005 |****                                                          0.004
 1756.22970 |*****                                                         0.005
 1816.78934 |*******                                                       0.006
 1877.34899 |**                                                            0.002
 1937.90863 |*******                                                       0.006
 1998.46828 |****                                                          0.004
 2059.02792 |***                                                           0.003
 2119.58757 |*****                                                         0.005
 2180.14721 |*******                                                       0.006
 2240.70686 |**                                                            0.002
 2301.26650 |                                                              0.000
 2361.82615 |***                                                           0.003
 2422.38579 |**                                                            0.002
 2482.94543 |***                                                           0.003
 2543.50508 |**                                                            0.002
 2604.06472 |******                                                        0.005
 2664.62437 |**                                                            0.002
 2725.18401 |****                                                          0.004
 2785.74366 |**                                                            0.002
 2846.30330 |*******                                                       0.006
 2906.86295 |**                                                            0.002
 2967.42259 |*******                                                       0.007
 3027.98224 |*****                                                         0.005
 3088.54188 |*                                                             0.001
 3149.10153 |*                                                             0.001
 3209.66117 |***                                                           0.003
 3270.22082 |****                                                          0.004
 3330.78046 |                                                              0.000
 3391.34011 |                                                              0.001
 3451.89975 |**                                                            0.002
 3512.45940 |                                                              0.001
 3573.01904 |                                                              0.000
 3633.57868 |                                                              0.000
 3694.13833 |                                                              0.000
 3754.69797 |                                                              0.000
 3815.25762 |                                                              0.001

  Time to end of optimisation =      10.6694 seconds

  Timing analysis for GULP :

  Task / Subroutine                                          Time (Seconds)
  Calculation of real space energy and derivatives                0.0003
  Calculation of Brenner energy and derivatives                   7.4277
  Calculation of phonons                                          3.3038
  Global summation overhead                                       1.3688

  CIF file written as opti.cif

  Job Finished at 10:54.43 21st February   2021