  Job Started  at 21:40.41 30th July       2020

  Number of CPUs =     1

  Total number of configurations input =      1

*  Input for Configuration =   1                                               *

  Formula = C64

  Number of irreducible atoms/shells =      64

  Total number atoms/shells =      64

  Dimensionality = 3               :  Bulk

  Cartesian lattice vectors (Angstroms) :

        7.089500    0.000000    0.000000
        0.000000    7.089500    0.000000
        0.000000    0.000000    7.089500

  Cell parameters (Angstroms/Degrees):

  a =       7.0895    alpha =  90.0000
  b =       7.0895    beta  =  90.0000
  c =       7.0895    gamma =  90.0000

  Initial cell volume =         356.325432 Angs**3

  Temperature of configuration =   50.0     K

  Pressure of configuration =         0.000 GPa

  Fractional coordinates of asymmetric unit :

   No.  Atomic       x           y          z         Charge      Occupancy
        Label      (Frac)      (Frac)     (Frac)        (e)         (Frac)
      1 C     c    0.503435 *  0.631681 *  0.094577 *   0.00000    1.000000
      2 C     c    0.451851 *  0.762282 *  0.360251 *   0.00000    1.000000
      3 C     c    0.389745 *  0.322463 *  0.965061 *   0.00000    1.000000
      4 C     c    0.154412 *  0.059539 *  0.688201 *   0.00000    1.000000
      5 C     c    0.026927 *  0.873771 *  0.910953 *   0.00000    1.000000
      6 C     c    0.840228 *  0.507666 *  0.667226 *   0.00000    1.000000
      7 C     c    0.616630 *  0.437591 *  0.728570 *   0.00000    1.000000
      8 C     c    0.831779 *  0.734537 *  0.357190 *   0.00000    1.000000
      9 C     c    0.998039 *  0.295155 *  0.352606 *   0.00000    1.000000
     10 C     c    0.744848 *  0.196121 *  0.173778 *   0.00000    1.000000
     11 C     c    0.966528 *  0.057084 *  0.387065 *   0.00000    1.000000
     12 C     c    0.014528 *  0.956795 *  0.572015 *   0.00000    1.000000
     13 C     c    0.586219 *  0.096692 *  0.200804 *   0.00000    1.000000
     14 C     c    0.596728 *  0.044827 *  0.554524 *   0.00000    1.000000
     15 C     c    0.525792 *  0.394908 *  0.036674 *   0.00000    1.000000
     16 C     c    0.988363 *  0.342591 *  0.585288 *   0.00000    1.000000
     17 C     c    0.237859 *  0.427534 *  0.878440 *   0.00000    1.000000
     18 C     c    0.911785 *  0.694816 *  0.898864 *   0.00000    1.000000
     19 C     c    0.932774 *  0.979392 *  0.107017 *   0.00000    1.000000
     20 C     c    0.236279 *  0.882615 *  0.828775 *   0.00000    1.000000
     21 C     c    0.952747 *  0.617364 *  0.755483 *   0.00000    1.000000
     22 C     c    0.879089 *  0.156245 *  0.758841 *   0.00000    1.000000
     23 C     c    0.541096 *  0.684872 *  0.541026 *   0.00000    1.000000
     24 C     c    0.737725 *  0.764257 *  0.881585 *   0.00000    1.000000
     25 C     c    0.675802 *  0.706270 *  0.088116 *   0.00000    1.000000
     26 C     c    0.821285 *  0.995430 *  0.736328 *   0.00000    1.000000
     27 C     c    0.475591 *  0.545934 *  0.633669 *   0.00000    1.000000
     28 C     c    0.348685 *  0.741886 *  0.172664 *   0.00000    1.000000
     29 C     c    0.604401 *  0.950518 *  0.720178 *   0.00000    1.000000
     30 C     c    0.821454 *  0.378518 *  0.253135 *   0.00000    1.000000
     31 C     c    0.110868 *  0.215657 *  0.169053 *   0.00000    1.000000
     32 C     c    0.022935 *  0.396389 *  0.875619 *   0.00000    1.000000
     33 C     c    0.560702 *  0.788984 *  0.768305 *   0.00000    1.000000
     34 C     c    0.913055 *  0.143621 *  0.057155 *   0.00000    1.000000
     35 C     c    0.419155 *  0.218774 *  0.726257 *   0.00000    1.000000
     36 C     c    0.180803 *  0.466211 *  0.509415 *   0.00000    1.000000
     37 C     c    0.336554 *  0.171634 *  0.132252 *   0.00000    1.000000
     38 C     c    0.305085 *  0.451245 *  0.605346 *   0.00000    1.000000
     39 C     c    0.143593 *  0.694238 *  0.464772 *   0.00000    1.000000
     40 C     c    0.959348 *  0.475788 *  0.027788 *   0.00000    1.000000
     41 C     c    0.874110 *  0.240017 *  0.927061 *   0.00000    1.000000
     42 C     c    0.465251 *  0.289597 *  0.220255 *   0.00000    1.000000
     43 C     c    0.451597 *  0.165287 *  0.561069 *   0.00000    1.000000
     44 C     c    0.983680 *  0.704196 *  0.285112 *   0.00000    1.000000
     45 C     c    0.451710 *  0.367050 *  0.438945 *   0.00000    1.000000
     46 C     c    0.645871 *  0.425813 *  0.428549 *   0.00000    1.000000
     47 C     c    0.335976 *  0.740743 *  0.818535 *   0.00000    1.000000
     48 C     c    0.040821 *  0.922674 *  0.267790 *   0.00000    1.000000
     49 C     c    0.838268 *  0.518767 *  0.118880 *   0.00000    1.000000
     50 C     c    0.262868 *  0.818393 *  0.433331 *   0.00000    1.000000
     51 C     c    0.738656 *  0.610692 *  0.501657 *   0.00000    1.000000
     52 C     c    0.065435 *  0.745201 *  0.627914 *   0.00000    1.000000
     53 C     c    0.259059 *  0.545596 *  0.920037 *   0.00000    1.000000
     54 C     c    0.079611 *  0.597235 *  0.220523 *   0.00000    1.000000
     55 C     c    0.689541 *  0.266211 *  0.905029 *   0.00000    1.000000
     56 C     c    0.506228 *  0.985655 *  0.031582 *   0.00000    1.000000
     57 C     c    0.578475 *  0.959264 *  0.346146 *   0.00000    1.000000
     58 C     c    0.204373 *  0.700261 *  0.115974 *   0.00000    1.000000
     59 C     c    0.980422 *  0.208985 *  0.661217 *   0.00000    1.000000
     60 C     c    0.273517 *  0.047338 *  0.533465 *   0.00000    1.000000
     61 C     c    0.774907 *  0.940983 *  0.367614 *   0.00000    1.000000
     62 C     c    0.300106 *  0.956429 *  0.035630 *   0.00000    1.000000
     63 C     c    0.542760 *  0.065153 *  0.847352 *   0.00000    1.000000
     64 C     c    0.290754 *  0.313210 *  0.710699 *   0.00000    1.000000

  Constraints :

  Constraint no.      Unconstrained     Constrained    Coefficient    Offset
                         Variable         Variable
           1              Strain 1        Strain 2       1.00000      0.0000
           2              Strain 1        Strain 3       1.00000      0.0000

*  General input information                                                   *

  Species output for all configurations :

  Species    Type    Atomic    Atomic    Charge       Radii (Angs)     Library
                     Number     Mass       (e)     Cova   Ionic  VDW   Symbol
    C        Core        6      12.01   0.000000   0.770  0.000  1.530

  Lattice summation method               =    Ewald          (3-D)
                                         =    Parry          (2-D)
                                         =    Saunders et al (1-D)
  Accuracy factor for lattice sums       =   12.000

  Analytic derivatives to be used

  Time limit = Infinity

  Maximum range for interatomic potentials =    100000.000000 Angstroms

  Brenner et al 2002 potential to be used with explicit splines for P

*  Output for configuration   1                                                *

  Components of energy :

  Interatomic potentials     =           0.00000000 eV
  Brenner potentials         =        -180.18552926 eV
  Monopole - monopole (real) =           0.00000000 eV
  Monopole - monopole (recip)=           0.00000000 eV
  Monopole - monopole (total)=           0.00000000 eV
  Total lattice energy       =        -180.18552926 eV
  Total lattice energy       =          -17385.1492 kJ/(mole unit cells)

  Equations of motion will be integrated using the leapfrog Verlet algorithm.

*  Molecular Dynamics                                                          *

  Isothermal/baric ensemble (NPT) to be used

  Friction for temperature bath =           0.000500
  Friction for pressure    bath =           0.000500

  No. of mobile ions        =                 64

  No. of degrees of freedom =                189

  Time step                 =           0.000100 ps
  Equilibration time        =           5.000000 ps
  Production time           =           0.000000 ps
  Scaling time              =           5.000000 ps
  Scaling frequency         =           0.000100 ps
  Sampling frequency        =           0.005000 ps
  Write frequency           =           0.002000 ps
  TD-Force start time       =           0.000000 ps
  TD-Field start time       =           0.000000 ps

  Molecular dynamics equilibration :

  ** Time :            0.00500 ps :
     Properties:                   Instantaneous       Averaged
       Kinetic energy    (eV) =       0.722318          0.722318
       Potential energy  (eV) =    -284.026886       -284.026886
       Total energy      (eV) =    -283.304568       -283.304568
       Temperature       (K)  =      88.699932         88.699932
       Pressure         (GPa) =     216.620921        216.620921
       Cell parameter : a (A) =       7.131120          7.131120
       Cell parameter : b (A) =       7.136828          7.136828
       Cell parameter : c (A) =       7.129139          7.129139
       Cell angle : alpha (o) =      89.978163         89.978163
       Cell angle : beta  (o) =      90.030913         90.030913
       Cell angle : gamma (o) =      90.043071         90.043071
       Cell volume :   (A**3) =     362.827212        362.827212
  ** Time :            0.01000 ps :
     Properties:                   Instantaneous       Averaged
       Kinetic energy    (eV) =       0.593556          0.657937
       Potential energy  (eV) =    -320.638660       -302.332773
       Total energy      (eV) =    -320.045104       -301.674836
       Temperature       (K)  =      72.888115         80.794024
       Pressure         (GPa) =     146.937472        180.595173
       Cell parameter : a (A) =       7.157942          7.144531
       Cell parameter : b (A) =       7.163145          7.149986
       Cell parameter : c (A) =       7.154549          7.141844
       Cell angle : alpha (o) =      89.965570         89.971866
       Cell angle : beta  (o) =      90.062944         90.046929
       Cell angle : gamma (o) =      90.061924         90.052497
       Cell volume :   (A**3) =     366.837388        364.832300
  ** Time :            0.01500 ps :
     Properties:                   Instantaneous       Averaged
       Kinetic energy    (eV) =       0.532827          0.616234
       Potential energy  (eV) =    -341.667747       -315.444431
       Total energy      (eV) =    -341.134920       -314.828197
       Temperature       (K)  =      65.430637         75.672895
       Pressure         (GPa) =     109.937619        156.088699
       Cell parameter : a (A) =       7.178324          7.155795
       Cell parameter : b (A) =       7.180966          7.160313
       Cell parameter : c (A) =       7.173375          7.152354
       Cell angle : alpha (o) =      89.954445         89.966059
       Cell angle : beta  (o) =      90.091522         90.061793
       Cell angle : gamma (o) =      90.071247         90.058747
       Cell volume :   (A**3) =     369.767216        366.477272
  ** Time :            0.02000 ps :
     Properties:                   Instantaneous       Averaged
[...]
       Cell parameter : c (A) =       7.708165          7.655627
       Cell angle : alpha (o) =      89.044204         89.213366
       Cell angle : beta  (o) =      88.885382         89.497192
       Cell angle : gamma (o) =      90.359656         90.213087
       Cell volume :   (A**3) =     441.771302        438.001877
  ** Time :            4.91500 ps :
     Properties:                   Instantaneous       Averaged
       Kinetic energy    (eV) =       0.407935          0.408362
       Potential energy  (eV) =    -422.131564       -420.997590
       Total energy      (eV) =    -421.723628       -420.589229
       Temperature       (K)  =      50.094063         50.146389
       Pressure         (GPa) =       0.070133          2.767760
       Cell parameter : a (A) =       7.777236          7.726054
       Cell parameter : b (A) =       7.371696          7.405165
       Cell parameter : c (A) =       7.708046          7.655680
       Cell angle : alpha (o) =      89.042757         89.213193
       Cell angle : beta  (o) =      88.883978         89.496568
       Cell angle : gamma (o) =      90.358683         90.213235
       Cell volume :   (A**3) =     441.758142        438.005698
  ** Time :            4.92000 ps :
     Properties:                   Instantaneous       Averaged
       Kinetic energy    (eV) =       0.407124          0.408360
       Potential energy  (eV) =    -422.172593       -420.998785
       Total energy      (eV) =    -421.765469       -420.590424
       Temperature       (K)  =      49.994456         50.146235
       Pressure         (GPa) =       1.443555          2.766236
       Cell parameter : a (A) =       7.777378          7.726106
       Cell parameter : b (A) =       7.371756          7.405131
       Cell parameter : c (A) =       7.708343          7.655734
       Cell angle : alpha (o) =      89.041202         89.213018
       Cell angle : beta  (o) =      88.883858         89.495946
       Cell angle : gamma (o) =      90.358122         90.213383
       Cell volume :   (A**3) =     441.786595        438.009540
  ** Time :            4.92500 ps :
     Properties:                   Instantaneous       Averaged
       Kinetic energy    (eV) =       0.407678          0.408360
       Potential energy  (eV) =    -422.134619       -420.999938
       Total energy      (eV) =    -421.726941       -420.591578
       Temperature       (K)  =      50.062470         50.146150
       Pressure         (GPa) =       1.491487          2.764601
       Cell parameter : a (A) =       7.777645          7.726159
       Cell parameter : b (A) =       7.372157          7.405098
       Cell parameter : c (A) =       7.708607          7.655788
       Cell angle : alpha (o) =      89.039715         89.212842
       Cell angle : beta  (o) =      88.886037         89.495326
       Cell angle : gamma (o) =      90.358343         90.213530
       Cell volume :   (A**3) =     441.841072        438.013430
  ** Time :            4.93000 ps :
     Properties:                   Instantaneous       Averaged
       Kinetic energy    (eV) =       0.407960          0.408359
       Potential energy  (eV) =    -422.224890       -421.001180
       Total energy      (eV) =    -421.816930       -420.592821
       Temperature       (K)  =      50.097074         50.146100
       Pressure         (GPa) =       1.017733          2.762633
       Cell parameter : a (A) =       7.777857          7.726211
       Cell parameter : b (A) =       7.372370          7.405064
       Cell parameter : c (A) =       7.708724          7.655841
       Cell angle : alpha (o) =      89.038209         89.212665
       Cell angle : beta  (o) =      88.886975         89.494709
       Cell angle : gamma (o) =      90.358458         90.213677
       Cell volume :   (A**3) =     441.872552        438.017344
  ** Time :            4.93500 ps :
     Properties:                   Instantaneous       Averaged
       Kinetic energy    (eV) =       0.405794          0.408357
       Potential energy  (eV) =    -422.214697       -421.002410
       Total energy      (eV) =    -421.808903       -420.594053
       Temperature       (K)  =      49.831138         50.145781
       Pressure         (GPa) =       0.547552          2.760176
       Cell parameter : a (A) =       7.778109          7.726264
       Cell parameter : b (A) =       7.372628          7.405032
       Cell parameter : c (A) =       7.708801          7.655895
       Cell angle : alpha (o) =      89.037701         89.212487
       Cell angle : beta  (o) =      88.886436         89.494093
       Cell angle : gamma (o) =      90.358194         90.213823
       Cell volume :   (A**3) =     441.906597        438.021285
  ** Time :            4.94000 ps :
     Properties:                   Instantaneous       Averaged
       Kinetic energy    (eV) =       0.406187          0.408354
       Potential energy  (eV) =    -422.082099       -421.003502
       Total energy      (eV) =    -421.675913       -420.595148
       Temperature       (K)  =      49.879331         50.145511
       Pressure         (GPa) =       0.898298          2.758207
       Cell parameter : a (A) =       7.778499          7.726317
       Cell parameter : b (A) =       7.372619          7.404999
       Cell parameter : c (A) =       7.708662          7.655948
       Cell angle : alpha (o) =      89.037106         89.212310
       Cell angle : beta  (o) =      88.885721         89.493477
       Cell angle : gamma (o) =      90.358036         90.213969
       Cell volume :   (A**3) =     441.920152        438.025231
  ** Time :            4.94500 ps :
     Properties:                   Instantaneous       Averaged
       Kinetic energy    (eV) =       0.407025          0.408353
       Potential energy  (eV) =    -422.059236       -421.004570
       Total energy      (eV) =    -421.652211       -420.596217
       Temperature       (K)  =      49.982234         50.145346
       Pressure         (GPa) =       0.956559          2.756145
       Cell parameter : a (A) =       7.778966          7.726370
       Cell parameter : b (A) =       7.372536          7.404966
       Cell parameter : c (A) =       7.708960          7.656002
       Cell angle : alpha (o) =      89.036308         89.212132
       Cell angle : beta  (o) =      88.886156         89.492863
       Cell angle : gamma (o) =      90.358016         90.214115
       Cell volume :   (A**3) =     441.958685        438.029208
  ** Time :            4.95000 ps :
     Properties:                   Instantaneous       Averaged
       Kinetic energy    (eV) =       0.407098          0.408352
       Potential energy  (eV) =    -422.081079       -421.005657
       Total energy      (eV) =    -421.673982       -420.597305
       Temperature       (K)  =      49.991177         50.145190
       Pressure         (GPa) =      -0.239470          2.753074
       Cell parameter : a (A) =       7.779073          7.726423
       Cell parameter : b (A) =       7.372454          7.404933
       Cell parameter : c (A) =       7.709065          7.656056
       Cell angle : alpha (o) =      89.037340         89.211955
       Cell angle : beta  (o) =      88.885828         89.492250
       Cell angle : gamma (o) =      90.357784         90.214260
       Cell volume :   (A**3) =     441.965971        438.033185
  ** Time :            4.95500 ps :
     Properties:                   Instantaneous       Averaged
       Kinetic energy    (eV) =       0.407675          0.408351
       Potential energy  (eV) =    -422.128903       -421.006791
       Total energy      (eV) =    -421.721228       -420.598440
       Temperature       (K)  =      50.062137         50.145107
       Pressure         (GPa) =      -0.837768          2.749566
       Cell parameter : a (A) =       7.778950          7.726476
       Cell parameter : b (A) =       7.372181          7.404900
       Cell parameter : c (A) =       7.709152          7.656109
       Cell angle : alpha (o) =      89.038981         89.211781
       Cell angle : beta  (o) =      88.883407         89.491636
       Cell angle : gamma (o) =      90.358753         90.214406
       Cell volume :   (A**3) =     441.947403        438.037134
  ** Time :            4.96000 ps :
     Properties:                   Instantaneous       Averaged
       Kinetic energy    (eV) =       0.407005          0.408350
       Potential energy  (eV) =    -422.152156       -421.007945
       Total energy      (eV) =    -421.745150       -420.599595
       Temperature       (K)  =      49.979864         50.144940
       Pressure         (GPa) =       1.008400          2.747833
       Cell parameter : a (A) =       7.779007          7.726529
       Cell parameter : b (A) =       7.372064          7.404867
       Cell parameter : c (A) =       7.709154          7.656163
       Cell angle : alpha (o) =      89.039966         89.211608
       Cell angle : beta  (o) =      88.882841         89.491022
       Cell angle : gamma (o) =      90.359918         90.214553
       Cell volume :   (A**3) =     441.943740        438.041073
  ** Time :            4.96500 ps :
     Properties:                   Instantaneous       Averaged
       Kinetic energy    (eV) =       0.407410          0.408349
       Potential energy  (eV) =    -422.167423       -421.009113
       Total energy      (eV) =    -421.760013       -420.600764
       Temperature       (K)  =      50.029532         50.144824
       Pressure         (GPa) =       1.495660          2.746261
       Cell parameter : a (A) =       7.779337          7.726582
       Cell parameter : b (A) =       7.372138          7.404834
       Cell parameter : c (A) =       7.709623          7.656217
       Cell angle : alpha (o) =      89.040846         89.211436
       Cell angle : beta  (o) =      88.882811         89.490409
       Cell angle : gamma (o) =      90.361130         90.214700
       Cell volume :   (A**3) =     441.993918        438.045053
  ** Time :            4.97000 ps :
     Properties:                   Instantaneous       Averaged
       Kinetic energy    (eV) =       0.407227          0.408348
       Potential energy  (eV) =    -422.147858       -421.010258
       Total energy      (eV) =    -421.740630       -420.601911
       Temperature       (K)  =      50.007101         50.144685
       Pressure         (GPa) =      -0.472551          2.742928
       Cell parameter : a (A) =       7.779612          7.726636
       Cell parameter : b (A) =       7.371989          7.404801
       Cell parameter : c (A) =       7.709772          7.656270
       Cell angle : alpha (o) =      89.041515         89.211265
       Cell angle : beta  (o) =      88.882558         89.489798
       Cell angle : gamma (o) =      90.361108         90.214847
       Cell volume :   (A**3) =     442.009106        438.049041
  ** Time :            4.97500 ps :
     Properties:                   Instantaneous       Averaged
       Kinetic energy    (eV) =       0.407466          0.408347
       Potential energy  (eV) =    -422.152093       -421.011406
       Total energy      (eV) =    -421.744627       -420.603059
       Temperature       (K)  =      50.036413         50.144576
       Pressure         (GPa) =      -0.134697          2.740107
       Cell parameter : a (A) =       7.779702          7.726689
       Cell parameter : b (A) =       7.371773          7.404768
       Cell parameter : c (A) =       7.709715          7.656324
       Cell angle : alpha (o) =      89.041471         89.211094
       Cell angle : beta  (o) =      88.880593         89.489186
       Cell angle : gamma (o) =      90.361245         90.214995
       Cell volume :   (A**3) =     441.997702        438.053010
  ** Time :            4.98000 ps :
     Properties:                   Instantaneous       Averaged
       Kinetic energy    (eV) =       0.406262          0.408345
       Potential energy  (eV) =    -422.107273       -421.012506
       Total energy      (eV) =    -421.701011       -420.604162
       Temperature       (K)  =      49.888543         50.144319
       Pressure         (GPa) =       0.733040          2.738057
       Cell parameter : a (A) =       7.779620          7.726742
       Cell parameter : b (A) =       7.371886          7.404735
       Cell parameter : c (A) =       7.709780          7.656378
       Cell angle : alpha (o) =      89.041095         89.210923
       Cell angle : beta  (o) =      88.879830         89.488574
       Cell angle : gamma (o) =      90.361595         90.215142
       Cell volume :   (A**3) =     442.003394        438.056976
  ** Time :            4.98500 ps :
     Properties:                   Instantaneous       Averaged
       Kinetic energy    (eV) =       0.407683          0.408344
       Potential energy  (eV) =    -422.169978       -421.013667
       Total energy      (eV) =    -421.762294       -420.605323
       Temperature       (K)  =      50.063103         50.144238
       Pressure         (GPa) =       0.064045          2.735276
       Cell parameter : a (A) =       7.779471          7.726795
       Cell parameter : b (A) =       7.372222          7.404702
       Cell parameter : c (A) =       7.709852          7.656431
       Cell angle : alpha (o) =      89.040937         89.210753
       Cell angle : beta  (o) =      88.880355         89.487964
       Cell angle : gamma (o) =      90.361928         90.215289
       Cell volume :   (A**3) =     442.019234        438.060950
  ** Time :            4.99000 ps :
     Properties:                   Instantaneous       Averaged
       Kinetic energy    (eV) =       0.406814          0.408342
       Potential energy  (eV) =    -422.192758       -421.014849
       Total energy      (eV) =    -421.785943       -420.606506
       Temperature       (K)  =      49.956378         50.144050
       Pressure         (GPa) =      -1.401870          2.731256
       Cell parameter : a (A) =       7.779237          7.726848
       Cell parameter : b (A) =       7.372173          7.404670
       Cell parameter : c (A) =       7.709789          7.656485
       Cell angle : alpha (o) =      89.040943         89.210583
       Cell angle : beta  (o) =      88.878591         89.487353
       Cell angle : gamma (o) =      90.362660         90.215437
       Cell volume :   (A**3) =     441.999042        438.064896
  ** Time :            4.99500 ps :
     Properties:                   Instantaneous       Averaged
       Kinetic energy    (eV) =       0.406424          0.408341
       Potential energy  (eV) =    -422.190068       -421.016025
       Total energy      (eV) =    -421.783643       -420.607685
       Temperature       (K)  =      49.908523         50.143814
       Pressure         (GPa) =      -0.293922          2.728454
       Cell parameter : a (A) =       7.779058          7.726900
       Cell parameter : b (A) =       7.371988          7.404637
       Cell parameter : c (A) =       7.709529          7.656538
       Cell angle : alpha (o) =      89.040312         89.210412
       Cell angle : beta  (o) =      88.876284         89.486742
       Cell angle : gamma (o) =      90.362917         90.215584
       Cell volume :   (A**3) =     441.962435        438.068798
  ** Time :            5.00000 ps :
     Properties:                   Instantaneous       Averaged
       Kinetic energy    (eV) =       0.407189          0.408339
       Potential energy  (eV) =    -422.136127       -421.017145
       Total energy      (eV) =    -421.728939       -420.608806
       Temperature       (K)  =      50.002365         50.143672
       Pressure         (GPa) =       0.402615          2.726038
       Cell parameter : a (A) =       7.778986          7.726952
       Cell parameter : b (A) =       7.372097          7.404604
       Cell parameter : c (A) =       7.709748          7.656591
       Cell angle : alpha (o) =      89.039628         89.210242
       Cell angle : beta  (o) =      88.873728         89.486129
       Cell angle : gamma (o) =      90.363802         90.215732
       Cell volume :   (A**3) =     441.976956        438.072706

  Timing analysis for GULP :

  Task / Subroutine                                          Time (Seconds)
  Calculation of Brenner energy and derivatives                 396.6679
  Calculation of matrix inversion                                 0.2206
  Molecular dynamics - update of geometry                         1.5048
  Molecular dynamics - predictor                                  0.1338
  Molecular dynamics - corrector                                  2.2971
  Molecular dynamics - velocity correction                        1.0872

  CIF file written as dm.cif

  Job Finished at 21:47.25 30th July       2020