  Job Started  at 18:11.02 14th August     2020

  Number of CPUs =     1

  Total number of configurations input =      1

*  Input for Configuration =   1                                               *

  Formula = C8

  Number of irreducible atoms/shells =       8

  Total number atoms/shells =       8

  Dimensionality = 3               :  Bulk

  Cartesian lattice vectors (Angstroms) :

        3.605349    0.000000    0.000000
        0.000000    3.605349    0.000000
        0.000000    0.000000    3.605349

  Cell parameters (Angstroms/Degrees):

  a =       3.6053    alpha =  90.0000
  b =       3.6053    beta  =  90.0000
  c =       3.6053    gamma =  90.0000

  Initial cell volume =          46.864278 Angs**3

  Shrinking factors =      8     8     8

  Temperature of configuration =  10.00     K

  Pressure of configuration =         0.000 GPa

  Fractional coordinates of asymmetric unit :

   No.  Atomic       x           y          z         Charge      Occupancy
        Label      (Frac)      (Frac)     (Frac)        (e)         (Frac)
      1 C     c    0.000000    0.000000    0.000000     0.00000    1.000000
      2 C     c    0.000000    0.500000    0.500000     0.00000    1.000000
      3 C     c    0.500000    0.500000    0.000000     0.00000    1.000000
      4 C     c    0.500000    0.000000    0.500000     0.00000    1.000000
      5 C     c    0.750000    0.250000    0.750000     0.00000    1.000000
      6 C     c    0.250000    0.250000    0.250000     0.00000    1.000000
      7 C     c    0.250000    0.750000    0.750000     0.00000    1.000000
      8 C     c    0.750000    0.750000    0.250000     0.00000    1.000000

  Brillouin zone sampling points :

  Point number          x          y          z            Weight
        1           0.062500   0.062500   0.062500     0.00390625
        2           0.062500   0.062500   0.187500     0.00390625
        3           0.062500   0.062500   0.312500     0.00390625
        4           0.062500   0.062500   0.437500     0.00390625
        5           0.062500   0.062500   0.562500     0.00390625
        6           0.062500   0.062500   0.687500     0.00390625
        7           0.062500   0.062500   0.812500     0.00390625
        8           0.062500   0.062500   0.937500     0.00390625
        9           0.062500   0.187500   0.062500     0.00390625
       10           0.062500   0.187500   0.187500     0.00390625
       11           0.062500   0.187500   0.312500     0.00390625
       12           0.062500   0.187500   0.437500     0.00390625
       13           0.062500   0.187500   0.562500     0.00390625
       14           0.062500   0.187500   0.687500     0.00390625
       15           0.062500   0.187500   0.812500     0.00390625
       16           0.062500   0.187500   0.937500     0.00390625
       17           0.062500   0.312500   0.062500     0.00390625
       18           0.062500   0.312500   0.187500     0.00390625
       19           0.062500   0.312500   0.312500     0.00390625
       20           0.062500   0.312500   0.437500     0.00390625
       21           0.062500   0.312500   0.562500     0.00390625
       22           0.062500   0.312500   0.687500     0.00390625
       23           0.062500   0.312500   0.812500     0.00390625
       24           0.062500   0.312500   0.937500     0.00390625
       25           0.062500   0.437500   0.062500     0.00390625
       26           0.062500   0.437500   0.187500     0.00390625
       27           0.062500   0.437500   0.312500     0.00390625
       28           0.062500   0.437500   0.437500     0.00390625
       29           0.062500   0.437500   0.562500     0.00390625
       30           0.062500   0.437500   0.687500     0.00390625
       31           0.062500   0.437500   0.812500     0.00390625
       32           0.062500   0.437500   0.937500     0.00390625
       33           0.062500   0.562500   0.062500     0.00390625
       34           0.062500   0.562500   0.187500     0.00390625
       35           0.062500   0.562500   0.312500     0.00390625
       36           0.062500   0.562500   0.437500     0.00390625
       37           0.062500   0.562500   0.562500     0.00390625
       38           0.062500   0.562500   0.687500     0.00390625
       39           0.062500   0.562500   0.812500     0.00390625
       40           0.062500   0.562500   0.937500     0.00390625
       41           0.062500   0.687500   0.062500     0.00390625
       42           0.062500   0.687500   0.187500     0.00390625
       43           0.062500   0.687500   0.312500     0.00390625
       44           0.062500   0.687500   0.437500     0.00390625
       45           0.062500   0.687500   0.562500     0.00390625
       46           0.062500   0.687500   0.687500     0.00390625
       47           0.062500   0.687500   0.812500     0.00390625
       48           0.062500   0.687500   0.937500     0.00390625
       49           0.062500   0.812500   0.062500     0.00390625
       50           0.062500   0.812500   0.187500     0.00390625
       51           0.062500   0.812500   0.312500     0.00390625
       52           0.062500   0.812500   0.437500     0.00390625
       53           0.062500   0.812500   0.562500     0.00390625
       54           0.062500   0.812500   0.687500     0.00390625
       55           0.062500   0.812500   0.812500     0.00390625
       56           0.062500   0.812500   0.937500     0.00390625
       57           0.062500   0.937500   0.062500     0.00390625
       58           0.062500   0.937500   0.187500     0.00390625
       59           0.062500   0.937500   0.312500     0.00390625
       60           0.062500   0.937500   0.437500     0.00390625
[...]
      242           0.437500   0.812500   0.187500     0.00390625
      243           0.437500   0.812500   0.312500     0.00390625
      244           0.437500   0.812500   0.437500     0.00390625
      245           0.437500   0.812500   0.562500     0.00390625
      246           0.437500   0.812500   0.687500     0.00390625
      247           0.437500   0.812500   0.812500     0.00390625
      248           0.437500   0.812500   0.937500     0.00390625
      249           0.437500   0.937500   0.062500     0.00390625
      250           0.437500   0.937500   0.187500     0.00390625
      251           0.437500   0.937500   0.312500     0.00390625
      252           0.437500   0.937500   0.437500     0.00390625
      253           0.437500   0.937500   0.562500     0.00390625
      254           0.437500   0.937500   0.687500     0.00390625
      255           0.437500   0.937500   0.812500     0.00390625
      256           0.437500   0.937500   0.937500     0.00390625

*  General input information                                                   *

  Species output for all configurations :

  Species    Type    Atomic    Atomic    Charge       Radii (Angs)     Library
                     Number     Mass       (e)     Cova   Ionic  VDW   Symbol
    C        Core        6      12.01   0.000000   0.770  0.000  1.530

  Lattice summation method               =    Ewald          (3-D)
                                         =    Parry          (2-D)
                                         =    Saunders et al (1-D)
  Accuracy factor for lattice sums       =   12.000

  Time limit = Infinity

  Maximum range for interatomic potentials =    100000.000000 Angstroms

  Brenner et al 2002 potential to be used with explicit splines for P

*  Output for configuration   1                                                *

  Components of energy :

  Interatomic potentials     =           0.00000000 eV
  Brenner potentials         =         -58.89125080 eV
  Monopole - monopole (real) =           0.00000000 eV
  Monopole - monopole (recip)=           0.00000000 eV
  Monopole - monopole (total)=           0.00000000 eV
  Total lattice energy       =         -58.89125080 eV
  Total lattice energy       =           -5682.1055 kJ/(mole unit cells)

  Elastic Constant Matrix: (Units=GPa)

  Indices      1         2         3         4         5         6
       1    987.0119   92.5843   92.5843   -0.0000   -0.0000   -0.0000
       2     92.5843  987.0119   92.5843   -0.0000   -0.0000   -0.0000
       3     92.5843   92.5843  987.0119   -0.0000   -0.0000   -0.0000
       4     -0.0000   -0.0000   -0.0000  655.5932    0.0000    0.0000
       5     -0.0000   -0.0000   -0.0000    0.0000  655.5932    0.0000
       6     -0.0000   -0.0000   -0.0000    0.0000    0.0000  655.5932

  Elastic Constant Tensor Eigenvalues: (Units=GPa)

     1 =   655.5932     2 =   655.5932     3 =   655.5932
     4 =   894.4276     5 =   894.4276     6 =  1172.1805

  Elastic Compliance Matrix: (Units=1/GPa)

  Indices      1         2         3         4         5         6
       1    0.001030 -0.000088 -0.000088  0.000000  0.000000  0.000000
       2   -0.000088  0.001030 -0.000088  0.000000  0.000000  0.000000
       3   -0.000088 -0.000088  0.001030  0.000000  0.000000  0.000000
       4    0.000000  0.000000  0.000000  0.001525 -0.000000 -0.000000
       5    0.000000  0.000000  0.000000 -0.000000  0.001525 -0.000000
       6    0.000000  0.000000  0.000000 -0.000000 -0.000000  0.001525

  Mechanical properties :

  Convention :                    Reuss         Voigt         Hill
  Bulk  Modulus (GPa)     =     390.72684     390.72684     390.72684
  Shear Modulus (GPa)     =     552.59963     572.24145     562.42054
  Velocity S-wave (km/s)  =      12.74036      12.96481      12.85308
  Velocity P-wave (km/s)  =      18.19868      18.40881      18.30405
  Compressibility (1/GPa) =    0.00255933
  Stress axis :                     x             y             z
  Youngs Moduli (GPa)     =     971.13215     971.13215     971.13215
  Poissons Ratio (x)      =                     0.08576       0.08576
  Poissons Ratio (y)      =       0.08576                     0.08576
  Poissons Ratio (z)      =       0.08576       0.08576

  Piezoelectric Strain Matrix: (Units=C/m**2)

  Indices      1         2         3         4         5         6
       x    -0.00000  -0.00000  -0.00000  -0.00000  -0.00000  -0.00000
       y    -0.00000  -0.00000  -0.00000  -0.00000  -0.00000  -0.00000
       z    -0.00000  -0.00000  -0.00000  -0.00000  -0.00000  -0.00000

  Piezoelectric Stress Matrix: (Units=10**-11 C/N)

  Indices      1         2         3         4         5         6
       x     0.00000   0.00000   0.00000   0.00000   0.00000   0.00000
       y     0.00000   0.00000   0.00000   0.00000   0.00000   0.00000
       z     0.00000   0.00000   0.00000   0.00000   0.00000   0.00000

  Static dielectric constant tensor :

              x         y         z
       x     1.00000   0.00000   0.00000
       y     0.00000   1.00000   0.00000
       z     0.00000   0.00000   1.00000

  Static refractive indices :

    1 =    1.00000      2 =    1.00000      3 =    1.00000

  Phonon Calculation :

  Number of k points for this configuration =      256

  K point      1 =   0.062500  0.062500  0.062500  Weight =    0.004

  Frequencies (cm-1) [NB: Negative implies an imaginary mode]:

[...]

[...]
  Uvib        (equipartition)  =        0.103408 eV
  Mean kinetic energy          =        0.816482 eV
  Heat capacity - const volume =        0.000002 eV/K
                               =        0.162914 J/(mol.K)
  Phonon properties (per mole of unit cells): Temperature =     60.000 K
  Zero point energy            =        1.632946 eV
  Entropy                      =        0.000001 eV/K
                               =        0.085378 J/(mol.K)
  Helmholtz free-energy        =      -57.258316 eV
                               =    -5524.551749 kJmol-1
  Free energy (equipartition)  =      -58.491367 eV
  - T*S       (equipartition)  =        0.275794 eV
  Uvib        (equipartition)  =        0.124090 eV
  Mean kinetic energy          =        0.816494 eV
  Heat capacity - const volume =        0.000003 eV/K
                               =        0.286519 J/(mol.K)
  Phonon properties (per mole of unit cells): Temperature =     70.000 K
  Zero point energy            =        1.632946 eV
  Entropy                      =        0.000001 eV/K
                               =        0.141950 J/(mol.K)
  Helmholtz free-energy        =      -57.258328 eV
                               =    -5524.552871 kJmol-1
  Free energy (equipartition)  =      -58.447036 eV
  - T*S       (equipartition)  =        0.299444 eV
  Uvib        (equipartition)  =        0.144771 eV
  Mean kinetic energy          =        0.816513 eV
  Heat capacity - const volume =        0.000005 eV/K
                               =        0.461522 J/(mol.K)
  Phonon properties (per mole of unit cells): Temperature =     80.000 K
  Zero point energy            =        1.632946 eV
  Entropy                      =        0.000002 eV/K
                               =        0.218397 J/(mol.K)
  Helmholtz free-energy        =      -57.258346 eV
                               =    -5524.554655 kJmol-1
  Free energy (equipartition)  =      -58.405670 eV
  - T*S       (equipartition)  =        0.320128 eV
  Uvib        (equipartition)  =        0.165453 eV
  Mean kinetic energy          =        0.816543 eV
  Heat capacity - const volume =        0.000007 eV/K
                               =        0.700621 J/(mol.K)
  Phonon properties (per mole of unit cells): Temperature =     90.000 K
  Zero point energy            =        1.632946 eV
  Entropy                      =        0.000003 eV/K
                               =        0.318409 J/(mol.K)
  Helmholtz free-energy        =      -57.258374 eV
                               =    -5524.557317 kJmol-1
  Free energy (equipartition)  =      -58.366896 eV
  - T*S       (equipartition)  =        0.338221 eV
  Uvib        (equipartition)  =        0.186134 eV
  Mean kinetic energy          =        0.816587 eV
  Heat capacity - const volume =        0.000011 eV/K
                               =        1.018187 J/(mol.K)
  Phonon properties (per mole of unit cells): Temperature =    100.000 K
  Zero point energy            =        1.632946 eV
  Entropy                      =        0.000005 eV/K
                               =        0.446101 J/(mol.K)
  Helmholtz free-energy        =      -57.258413 eV
                               =    -5524.561115 kJmol-1
  Free energy (equipartition)  =      -58.330424 eV
  - T*S       (equipartition)  =        0.354010 eV
  Uvib        (equipartition)  =        0.206816 eV
  Mean kinetic energy          =        0.816650 eV
  Heat capacity - const volume =        0.000015 eV/K
                               =        1.430007 J/(mol.K)
  Phonon properties (per mole of unit cells): Temperature =    110.000 K
  Zero point energy            =        1.632946 eV
  Entropy                      =        0.000006 eV/K
                               =        0.605950 J/(mol.K)
  Helmholtz free-energy        =      -57.258467 eV
                               =    -5524.566347 kJmol-1
  Free energy (equipartition)  =      -58.296025 eV
  - T*S       (equipartition)  =        0.367729 eV
  Uvib        (equipartition)  =        0.227498 eV
  Mean kinetic energy          =        0.816737 eV
  Heat capacity - const volume =        0.000020 eV/K
                               =        1.952339 J/(mol.K)
  Phonon properties (per mole of unit cells): Temperature =    120.000 K
  Zero point energy            =        1.632946 eV
  Entropy                      =        0.000008 eV/K
                               =        0.802657 J/(mol.K)
  Helmholtz free-energy        =      -57.258540 eV
                               =    -5524.573357 kJmol-1
  Free energy (equipartition)  =      -58.263508 eV
  - T*S       (equipartition)  =        0.379564 eV
  Uvib        (equipartition)  =        0.248179 eV
  Mean kinetic energy          =        0.816855 eV
  Heat capacity - const volume =        0.000027 eV/K
                               =        2.600657 J/(mol.K)
  Phonon properties (per mole of unit cells): Temperature =    130.000 K
  Zero point energy            =        1.632946 eV
  Entropy                      =        0.000011 eV/K
                               =        1.040962 J/(mol.K)
  Helmholtz free-energy        =      -57.258635 eV
                               =    -5524.582538 kJmol-1
  Free energy (equipartition)  =      -58.232716 eV
  - T*S       (equipartition)  =        0.389674 eV
  Uvib        (equipartition)  =        0.268861 eV
  Mean kinetic energy          =        0.817009 eV
  Heat capacity - const volume =        0.000035 eV/K
                               =        3.388530 J/(mol.K)
  Phonon properties (per mole of unit cells): Temperature =    140.000 K
  Zero point energy            =        1.632946 eV
  Entropy                      =        0.000014 eV/K
                               =        1.325461 J/(mol.K)
  Helmholtz free-energy        =      -57.258757 eV
                               =    -5524.594330 kJmol-1
  Free energy (equipartition)  =      -58.203517 eV
  - T*S       (equipartition)  =        0.398191 eV
  Uvib        (equipartition)  =        0.289542 eV
  Mean kinetic energy          =        0.817208 eV
  Heat capacity - const volume =        0.000045 eV/K
                               =        4.326851 J/(mol.K)
  Phonon properties (per mole of unit cells): Temperature =    150.000 K
  Zero point energy            =        1.632946 eV
  Entropy                      =        0.000017 eV/K
                               =        1.660450 J/(mol.K)
  Helmholtz free-energy        =      -57.258912 eV
                               =    -5524.609216 kJmol-1
  Free energy (equipartition)  =      -58.175796 eV
  - T*S       (equipartition)  =        0.405230 eV
  Uvib        (equipartition)  =        0.310224 eV
  Mean kinetic energy          =        0.817460 eV
  Heat capacity - const volume =        0.000056 eV/K
                               =        5.423455 J/(mol.K)
  Phonon properties (per mole of unit cells): Temperature =    160.000 K
  Zero point energy            =        1.632946 eV
  Entropy                      =        0.000021 eV/K
                               =        2.049797 J/(mol.K)
  Helmholtz free-energy        =      -57.259104 eV
                               =    -5524.627720 kJmol-1
  Free energy (equipartition)  =      -58.149455 eV
  - T*S       (equipartition)  =        0.410890 eV
  Uvib        (equipartition)  =        0.330906 eV
  Mean kinetic energy          =        0.817773 eV
  Heat capacity - const volume =        0.000069 eV/K
                               =        6.683057 J/(mol.K)
  Phonon properties (per mole of unit cells): Temperature =    170.000 K
  Zero point energy            =        1.632946 eV
  Entropy                      =        0.000026 eV/K
                               =        2.496862 J/(mol.K)
  Helmholtz free-energy        =      -57.259339 eV
                               =    -5524.650404 kJmol-1
  Free energy (equipartition)  =      -58.124408 eV
  - T*S       (equipartition)  =        0.415255 eV
  Uvib        (equipartition)  =        0.351587 eV
  Mean kinetic energy          =        0.818156 eV
  Heat capacity - const volume =        0.000084 eV/K
                               =        8.107392 J/(mol.K)
  Phonon properties (per mole of unit cells): Temperature =    180.000 K
  Zero point energy            =        1.632946 eV
  Entropy                      =        0.000031 eV/K
                               =        3.004448 J/(mol.K)
  Helmholtz free-energy        =      -57.259623 eV
                               =    -5524.677859 kJmol-1
  Free energy (equipartition)  =      -58.100578 eV
  - T*S       (equipartition)  =        0.418404 eV
  Uvib        (equipartition)  =        0.372269 eV
  Mean kinetic energy          =        0.818616 eV
  Heat capacity - const volume =        0.000100 eV/K
                               =        9.695477 J/(mol.K)
  Phonon properties (per mole of unit cells): Temperature =    190.000 K
  Zero point energy            =        1.632946 eV
  Entropy                      =        0.000037 eV/K
                               =        3.574784 J/(mol.K)
  Helmholtz free-energy        =      -57.259964 eV
                               =    -5524.710703 kJmol-1
  Free energy (equipartition)  =      -58.077897 eV
  - T*S       (equipartition)  =        0.420403 eV
  Uvib        (equipartition)  =        0.392951 eV
  Mean kinetic energy          =        0.819163 eV
  Heat capacity - const volume =        0.000119 eV/K
                               =       11.443909 J/(mol.K)
  Phonon properties (per mole of unit cells): Temperature =    200.000 K
  Zero point energy            =        1.632946 eV
  Entropy                      =        0.000044 eV/K
                               =        4.209528 J/(mol.K)
  Helmholtz free-energy        =      -57.260366 eV
                               =    -5524.749570 kJmol-1
  Free energy (equipartition)  =      -58.056306 eV
  - T*S       (equipartition)  =        0.421313 eV
  Uvib        (equipartition)  =        0.413632 eV
  Mean kinetic energy          =        0.819805 eV
  Heat capacity - const volume =        0.000138 eV/K
                               =       13.347191 J/(mol.K)
  Phonon properties (per mole of unit cells): Temperature =    210.000 K
  Zero point energy            =        1.632946 eV
  Entropy                      =        0.000051 eV/K
                               =        4.909780 J/(mol.K)
  Helmholtz free-energy        =      -57.260838 eV
                               =    -5524.795111 kJmol-1
  Free energy (equipartition)  =      -58.035749 eV
  - T*S       (equipartition)  =        0.421188 eV
  Uvib        (equipartition)  =        0.434314 eV
  Mean kinetic energy          =        0.820549 eV
  Heat capacity - const volume =        0.000160 eV/K
                               =       15.398045 J/(mol.K)
  Phonon properties (per mole of unit cells): Temperature =    220.000 K
  Zero point energy            =        1.632946 eV
  Entropy                      =        0.000059 eV/K
                               =        5.676115 J/(mol.K)
  Helmholtz free-energy        =      -57.261386 eV
                               =    -5524.847986 kJmol-1
  Free energy (equipartition)  =      -58.016177 eV
  - T*S       (equipartition)  =        0.420078 eV
  Uvib        (equipartition)  =        0.454995 eV
  Mean kinetic energy          =        0.821403 eV
  Heat capacity - const volume =        0.000182 eV/K
                               =       17.587723 J/(mol.K)
  Phonon properties (per mole of unit cells): Temperature =    230.000 K
  Zero point energy            =        1.632946 eV
  Entropy                      =        0.000067 eV/K
                               =        6.508613 J/(mol.K)
  Helmholtz free-energy        =      -57.262017 eV
                               =    -5524.908854 kJmol-1
  Free energy (equipartition)  =      -57.997546 eV
  - T*S       (equipartition)  =        0.418028 eV
  Uvib        (equipartition)  =        0.475677 eV
  Mean kinetic energy          =        0.822374 eV
  Heat capacity - const volume =        0.000206 eV/K
                               =       19.906300 J/(mol.K)
  Phonon properties (per mole of unit cells): Temperature =    240.000 K
  Zero point energy            =        1.632946 eV
  Entropy                      =        0.000077 eV/K
                               =        7.406902 J/(mol.K)
  Helmholtz free-energy        =      -57.262738 eV
                               =    -5524.978377 kJmol-1
  Free energy (equipartition)  =      -57.979814 eV
  - T*S       (equipartition)  =        0.415078 eV
  Uvib        (equipartition)  =        0.496359 eV
  Mean kinetic energy          =        0.823469 eV
  Heat capacity - const volume =        0.000232 eV/K
                               =       22.342958 J/(mol.K)
  Phonon properties (per mole of unit cells): Temperature =    250.000 K
  Zero point energy            =        1.632946 eV
  Entropy                      =        0.000087 eV/K
                               =        8.370201 J/(mol.K)
  Helmholtz free-energy        =      -57.263555 eV
                               =    -5525.057209 kJmol-1
  Free energy (equipartition)  =      -57.962944 eV
  - T*S       (equipartition)  =        0.411267 eV
  Uvib        (equipartition)  =        0.517040 eV
  Mean kinetic energy          =        0.824692 eV
  Heat capacity - const volume =        0.000258 eV/K
                               =       24.886250 J/(mol.K)
  Phonon properties (per mole of unit cells): Temperature =    260.000 K
  Zero point energy            =        1.632946 eV
  Entropy                      =        0.000097 eV/K
                               =        9.397363 J/(mol.K)
  Helmholtz free-energy        =      -57.264475 eV
                               =    -5525.145994 kJmol-1
  Free energy (equipartition)  =      -57.946901 eV
  - T*S       (equipartition)  =        0.406628 eV
  Uvib        (equipartition)  =        0.537722 eV
  Mean kinetic energy          =        0.826050 eV
  Heat capacity - const volume =        0.000285 eV/K
                               =       27.524347 J/(mol.K)
  Phonon properties (per mole of unit cells): Temperature =    270.000 K
  Zero point energy            =        1.632946 eV
  Entropy                      =        0.000109 eV/K
                               =       10.486921 J/(mol.K)
  Helmholtz free-energy        =      -57.265505 eV
                               =    -5525.245364 kJmol-1
  Free energy (equipartition)  =      -57.931655 eV
  - T*S       (equipartition)  =        0.401193 eV
  Uvib        (equipartition)  =        0.558403 eV
  Mean kinetic energy          =        0.827546 eV
  Heat capacity - const volume =        0.000313 eV/K
                               =       30.245259 J/(mol.K)
  Phonon properties (per mole of unit cells): Temperature =    280.000 K
  Zero point energy            =        1.632946 eV
  Entropy                      =        0.000121 eV/K
                               =       11.637130 J/(mol.K)
  Helmholtz free-energy        =      -57.266651 eV
                               =    -5525.355935 kJmol-1
  Free energy (equipartition)  =      -57.917174 eV
  - T*S       (equipartition)  =        0.394992 eV
  Uvib        (equipartition)  =        0.579085 eV
  Mean kinetic energy          =        0.829185 eV
  Heat capacity - const volume =        0.000342 eV/K
                               =       33.037037 J/(mol.K)
  Phonon properties (per mole of unit cells): Temperature =    290.000 K
  Zero point energy            =        1.632946 eV
  Entropy                      =        0.000133 eV/K
                               =       12.846016 J/(mol.K)
  Helmholtz free-energy        =      -57.267919 eV
                               =    -5525.478303 kJmol-1
  Free energy (equipartition)  =      -57.903432 eV
  - T*S       (equipartition)  =        0.388052 eV
  Uvib        (equipartition)  =        0.599767 eV
  Mean kinetic energy          =        0.830971 eV
  Heat capacity - const volume =        0.000372 eV/K
                               =       35.887936 J/(mol.K)

  Time to end of properties =       1.3008 seconds

  Timing analysis for GULP :

  Task / Subroutine                                          Time (Seconds)
  Calculation of real space energy and derivatives                0.0005
  Calculation of Brenner energy and derivatives                   1.2623
  Calculation of phonons                                          1.2886
  Disk read/write operations to scratch files                     0.0055

  Job Finished at 18:11.04 14th August     2020