  Job Started  at 16:48.09 11th August     2020

  Number of CPUs =     1

  Total number of configurations input =      1

*  Input for Configuration =   1                                               *

  Formula = C64

  Number of irreducible atoms/shells =      64

  Total number atoms/shells =      64

  Dimensionality = 3               :  Bulk

  Cartesian lattice vectors (Angstroms) :

        7.569600    0.000000    0.000000
        0.000000    7.569600    0.000000
        0.000000    0.000000    7.569600

  Cell parameters (Angstroms/Degrees):

  a =       7.5696    alpha =  90.0000
  b =       7.5696    beta  =  90.0000
  c =       7.5696    gamma =  90.0000

  Initial cell volume =         433.729331 Angs**3

  Temperature of configuration =   0.00     K

  Pressure of configuration =         0.000 GPa

  Fractional coordinates of asymmetric unit :

   No.  Atomic       x           y          z         Charge      Occupancy
        Label      (Frac)      (Frac)     (Frac)        (e)         (Frac)
      1 C     c    0.025100    0.587150    0.365320     0.00000    1.000000
      2 C     c    0.262920 *  0.103410 *  0.104730 *   0.00000    1.000000
      3 C     c    0.101350 *  0.438240 *  0.267670 *   0.00000    1.000000
      4 C     c    0.887170 *  0.967670 *  0.449850 *   0.00000    1.000000
      5 C     c    0.476310 *  0.916910 *  0.985380 *   0.00000    1.000000
      6 C     c    0.792380 *  0.447120 *  0.218980 *   0.00000    1.000000
      7 C     c    0.924480 *  0.637650 *  0.717310 *   0.00000    1.000000
      8 C     c    0.811400 *  0.557970 *  0.589210 *   0.00000    1.000000
      9 C     c    0.135640 *  0.381130 *  0.633750 *   0.00000    1.000000
     10 C     c    0.404480 *  0.770090 *  0.119320 *   0.00000    1.000000
     11 C     c    0.892480 *  0.259950 *  0.745230 *   0.00000    1.000000
     12 C     c    0.573910 *  0.902720 *  0.556840 *   0.00000    1.000000
     13 C     c    0.428870 *  0.241140 *  0.632040 *   0.00000    1.000000
     14 C     c    0.202470 *  0.983740 *  0.797110 *   0.00000    1.000000
     15 C     c    0.525880 *  0.611750 *  0.404300 *   0.00000    1.000000
     16 C     c    0.985500 *  0.938840 *  0.116580 *   0.00000    1.000000
     17 C     c    0.137610 *  0.821480 *  0.857740 *   0.00000    1.000000
     18 C     c    0.351910 *  0.690010 *  0.661380 *   0.00000    1.000000
     19 C     c    0.741310 *  0.385810 *  0.680460 *   0.00000    1.000000
     20 C     c    0.050330 *  0.257490 *  0.263610 *   0.00000    1.000000
     21 C     c    0.936410 *  0.176070 *  0.419170 *   0.00000    1.000000
     22 C     c    0.844780 *  0.621320 *  0.414150 *   0.00000    1.000000
     23 C     c    0.483230 *  0.819430 *  0.687860 *   0.00000    1.000000
     24 C     c    0.796850 *  0.294180 *  0.323520 *   0.00000    1.000000
     25 C     c    0.665430 *  0.160510 *  0.013380 *   0.00000    1.000000
     26 C     c    0.523160 *  0.609470 *  0.090660 *   0.00000    1.000000
     27 C     c    0.608590 *  0.278440 *  0.570480 *   0.00000    1.000000
     28 C     c    0.632740 *  0.987810 *  0.118060 *   0.00000    1.000000
     29 C     c    0.479260 *  0.919470 *  0.249310 *   0.00000    1.000000
     30 C     c    0.343010 *  0.057670 *  0.919320 *   0.00000    1.000000
     31 C     c    0.809280 *  0.115180 *  0.880710 *   0.00000    1.000000
     32 C     c    0.878960 *  0.769360 *  0.839450 *   0.00000    1.000000
     33 C     c    0.312260 *  0.395180 *  0.573030 *   0.00000    1.000000
     34 C     c    0.226160 *  0.691150 *  0.125260 *   0.00000    1.000000
     35 C     c    0.074420 *  0.509910 *  0.776790 *   0.00000    1.000000
     36 C     c    0.327980 *  0.107110 *  0.509160 *   0.00000    1.000000
     37 C     c    0.125860 *  0.738910 *  0.426020 *   0.00000    1.000000
     38 C     c    0.541530 *  0.319980 *  0.957240 *   0.00000    1.000000
     39 C     c    0.060220 *  0.131610 *  0.106160 *   0.00000    1.000000
     40 C     c    0.774150 *  0.940120 *  0.797050 *   0.00000    1.000000
     41 C     c    0.395770 *  0.560040 *  0.530340 *   0.00000    1.000000
     42 C     c    0.072920 *  0.895830 *  0.497030 *   0.00000    1.000000
     43 C     c    0.003550 *  0.429260 *  0.951650 *   0.00000    1.000000
     44 C     c    0.238920 *  0.507050 *  0.154990 *   0.00000    1.000000
     45 C     c    0.200280 *  0.669960 *  0.767130 *   0.00000    1.000000
     46 C     c    0.898940 *  0.525990 *  0.081130 *   0.00000    1.000000
     47 C     c    0.798260 *  0.866300 *  0.156440 *   0.00000    1.000000
     48 C     c    0.985740 *  0.224080 *  0.948190 *   0.00000    1.000000
     49 C     c    0.778640 *  0.806930 *  0.350870 *   0.00000    1.000000
     50 C     c    0.823150 *  0.703600 *  0.024560 *   0.00000    1.000000
     51 C     c    0.160180 *  0.043010 *  0.607260 *   0.00000    1.000000
     52 C     c    0.474560 *  0.268830 *  0.277510 *   0.00000    1.000000
     53 C     c    0.433550 *  0.402960 *  0.122800 *   0.00000    1.000000
     54 C     c    0.363930 *  0.091230 *  0.291090 *   0.00000    1.000000
     55 C     c    0.626270 *  0.267800 *  0.390540 *   0.00000    1.000000
     56 C     c    0.427300 *  0.213250 *  0.829230 *   0.00000    1.000000
     57 C     c    0.641620 *  0.458580 *  0.847160 *   0.00000    1.000000
     58 C     c    0.744040 *  0.961990 *  0.603360 *   0.00000    1.000000
     59 C     c    0.097840 *  0.802160 *  0.041590 *   0.00000    1.000000
     60 C     c    0.623680 *  0.539060 *  0.253400 *   0.00000    1.000000
     61 C     c    0.574070 *  0.815990 *  0.387170 *   0.00000    1.000000
     62 C     c    0.029440 *  0.210170 *  0.601810 *   0.00000    1.000000
     63 C     c    0.641420 *  0.641000 *  0.933820 *   0.00000    1.000000
     64 C     c    0.590890 *  0.825050 *  0.852390 *   0.00000    1.000000

  Constraints :

  Constraint no.      Unconstrained     Constrained    Coefficient    Offset
                         Variable         Variable
           1              Strain 1        Strain 2       1.00000      0.0000
           2              Strain 1        Strain 3       1.00000      0.0000

*  General input information                                                   *

  Species output for all configurations :

  Species    Type    Atomic    Atomic    Charge       Radii (Angs)     Library
                     Number     Mass       (e)     Cova   Ionic  VDW   Symbol
    C        Core        6      12.01   0.000000   0.770  0.000  1.530

  Lattice summation method               =    Ewald          (3-D)
                                         =    Parry          (2-D)
                                         =    Saunders et al (1-D)
  Accuracy factor for lattice sums       =   12.000

  Analytic derivatives to be used

  Time limit = Infinity

  Maximum range for interatomic potentials =    100000.000000 Angstroms

  Brenner et al 2002 potential to be used with explicit splines for P

*  Output for configuration   1                                                *

  Components of energy :

  Interatomic potentials     =           0.00000000 eV
  Brenner potentials         =        -428.06161595 eV
  Monopole - monopole (real) =           0.00000000 eV
  Monopole - monopole (recip)=           0.00000000 eV
  Monopole - monopole (total)=           0.00000000 eV
  Total lattice energy       =        -428.06161595 eV
  Total lattice energy       =          -41301.4024 kJ/(mole unit cells)

  Number of variables =      190

  Maximum number of calculations  =          2000
  Maximum Hessian update interval =            10
  Maximum step size               =   1.000000000
  Maximum parameter tolerance     =   0.000010000
  Maximum function  tolerance     =   0.000010000
  Maximum gradient  tolerance     =   0.001000000
  Maximum gradient  component     =   0.010000000

  Symmetry not applied to optimisation

  Cell parameters to be optimised using strains

  RFO method to be used

  DFP hessian update to be used

  Lower half triangular hessian to be used

  Start of bulk optimisation :

  ** Hessian has required structure
  ** Hessian has required structure
  ** Hessian has required structure
  ** Hessian has required structure
  ** Hessian has required structure
  ** Hessian has required structure
  ** Hessian has required structure
  ** Hessian has required structure
  ** Hessian has required structure
  ** Hessian has required structure

  **** Optimisation achieved ****

  Final energy =    -428.45932058 eV
  Final Gnorm  =       0.00002489

  Components of energy :

  Interatomic potentials     =           0.00000000 eV
  Brenner potentials         =        -428.45932058 eV
  Monopole - monopole (real) =           0.00000000 eV
  Monopole - monopole (recip)=           0.00000000 eV
  Monopole - monopole (total)=           0.00000000 eV
  Total lattice energy       =        -428.45932058 eV
  Total lattice energy       =          -41339.7748 kJ/(mole unit cells)

  Final fractional coordinates of atoms :

   No.  Atomic        x           y          z          Radius
        Label       (Frac)      (Frac)     (Frac)       (Angs)
     1  C     c     0.025100    0.587150    0.365320    0.000000
     2  C     c     0.261963    0.102346    0.107877    0.000000
     3  C     c     0.100082    0.438457    0.267702    0.000000
     4  C     c     0.878960    0.966817    0.452799    0.000000
     5  C     c     0.476975    0.917403    0.988740    0.000000
     6  C     c     0.786994    0.447149    0.220137    0.000000
     7  C     c     0.923045    0.637524    0.717045    0.000000
     8  C     c     0.810170    0.554563    0.590265    0.000000
     9  C     c     0.131787    0.380041    0.638712    0.000000
    10  C     c     0.404275    0.764549    0.117608    0.000000
    11  C     c     0.889704    0.256979    0.746614    0.000000
    12  C     c     0.569912    0.900620    0.557398    0.000000
    13  C     c     0.425646    0.240870    0.632438    0.000000
    14  C     c     0.200016    0.983726    0.798588    0.000000
    15  C     c     0.523058    0.608537    0.406756    0.000000
    16  C     c     0.987716    0.938202    0.121296    0.000000
    17  C     c     0.134676    0.821550    0.858209    0.000000
    18  C     c     0.347746    0.690114    0.662489    0.000000
    19  C     c     0.738193    0.384182    0.683429    0.000000
    20  C     c     0.046456    0.258106    0.266305    0.000000
    21  C     c     0.936078    0.173340    0.419845    0.000000
    22  C     c     0.843297    0.615881    0.414964    0.000000
    23  C     c     0.478470    0.818966    0.689890    0.000000
    24  C     c     0.794120    0.296781    0.327437    0.000000
    25  C     c     0.669442    0.161027    0.017329    0.000000
    26  C     c     0.520344    0.604652    0.088343    0.000000
    27  C     c     0.606081    0.280543    0.571438    0.000000
    28  C     c     0.633893    0.989521    0.119020    0.000000
    29  C     c     0.479158    0.916090    0.251292    0.000000
    30  C     c     0.339390    0.056683    0.923073    0.000000
    31  C     c     0.810283    0.113016    0.884120    0.000000
    32  C     c     0.867953    0.767487    0.838095    0.000000
    33  C     c     0.307469    0.395316    0.575806    0.000000
    34  C     c     0.226623    0.687031    0.123414    0.000000
    35  C     c     0.071612    0.510038    0.779397    0.000000
    36  C     c     0.326191    0.102145    0.509582    0.000000
    37  C     c     0.121965    0.741098    0.423812    0.000000
    38  C     c     0.542646    0.314791    0.957101    0.000000
    39  C     c     0.063417    0.131369    0.109254    0.000000
    40  C     c     0.769653    0.942182    0.796811    0.000000
    41  C     c     0.392752    0.558230    0.534202    0.000000
    42  C     c     0.068185    0.896534    0.498724    0.000000
    43  C     c     0.001703    0.428838    0.954851    0.000000
    44  C     c     0.238474    0.500646    0.156152    0.000000
    45  C     c     0.195645    0.672078    0.768162    0.000000
    46  C     c     0.892946    0.519810    0.081836    0.000000
    47  C     c     0.799975    0.863027    0.155413    0.000000
    48  C     c     0.985833    0.222015    0.949251    0.000000
    49  C     c     0.775600    0.805364    0.350135    0.000000
    50  C     c     0.821572    0.700472    0.025360    0.000000
    51  C     c     0.158977    0.041531    0.607945    0.000000
    52  C     c     0.476043    0.263667    0.276633    0.000000
    53  C     c     0.434680    0.399100    0.122781    0.000000
    54  C     c     0.365659    0.086633    0.294638    0.000000
    55  C     c     0.624160    0.266267    0.391704    0.000000
    56  C     c     0.422294    0.211335    0.832229    0.000000
    57  C     c     0.643822    0.455718    0.850330    0.000000
    58  C     c     0.737119    0.967714    0.602662    0.000000
    59  C     c     0.099211    0.802470    0.043613    0.000000
    60  C     c     0.617727    0.536111    0.254433    0.000000
    61  C     c     0.572992    0.809177    0.389999    0.000000
    62  C     c     0.026999    0.208412    0.602339    0.000000
    63  C     c     0.640775    0.641505    0.932272    0.000000
    64  C     c     0.588561    0.824648    0.852349    0.000000

  Final Cartesian lattice vectors (Angstroms) :

        7.573779    0.000000    0.000000
        0.000000    7.573779    0.000000
        0.000000    0.000000    7.573779

  Final cell parameters and derivatives :

       a            7.573779 Angstrom     dE/de1(xx)    -0.000013 eV/strain
       b            7.573779 Angstrom     dE/de2(yy)     0.000000 eV/strain
       c            7.573779 Angstrom     dE/de3(zz)     0.000000 eV/strain
       alpha       90.000000 Degrees      dE/de4(yz)     0.000000 eV/strain
       beta        90.000000 Degrees      dE/de5(xz)     0.000000 eV/strain
       gamma       90.000000 Degrees      dE/de6(xy)     0.000000 eV/strain

  Primitive cell volume =           434.448169 Angs**3

  Density of cell =      2.937927 g/cm**3

  Non-primitive cell volume =           434.448169 Angs**3

  Final internal derivatives :

   No.  Atomic          a             b             c           Radius
        Label          (eV)          (eV)          (eV)        (eV/Angs)
      1 C     c       0.000000      0.000000      0.000000      0.000000
      2 C     c       0.000411      0.000005      0.000147      0.000000
      3 C     c      -0.000201     -0.000589     -0.000110      0.000000
      4 C     c       0.000117      0.000142      0.000106      0.000000
      5 C     c       0.000224     -0.000027      0.000298      0.000000
      6 C     c      -0.000053      0.000157     -0.000122      0.000000
      7 C     c       0.000251      0.000077     -0.000134      0.000000
      8 C     c       0.000061     -0.000100     -0.000058      0.000000
      9 C     c       0.000040      0.000032      0.000083      0.000000
     10 C     c      -0.000403     -0.000343     -0.000442      0.000000
     11 C     c      -0.000210     -0.000224     -0.000106      0.000000
     12 C     c       0.000122      0.000093     -0.000041      0.000000
     13 C     c       0.000043     -0.000159      0.000048      0.000000
     14 C     c       0.000038      0.000075     -0.000030      0.000000
     15 C     c      -0.000024      0.000118     -0.000031      0.000000
     16 C     c      -0.000116     -0.000094     -0.000038      0.000000
     17 C     c       0.000043      0.000072     -0.000126      0.000000
     18 C     c       0.000150      0.000097     -0.000036      0.000000
     19 C     c       0.000183      0.000064     -0.000258      0.000000
     20 C     c       0.000280     -0.000103      0.000167      0.000000
     21 C     c       0.000084     -0.000001     -0.000388      0.000000
     22 C     c      -0.000310     -0.000073      0.000140      0.000000
     23 C     c      -0.000130     -0.000061      0.000097      0.000000
     24 C     c      -0.000309      0.000130      0.000462      0.000000
     25 C     c       0.000079      0.000058     -0.000035      0.000000
     26 C     c       0.000506     -0.000407     -0.000628      0.000000
     27 C     c       0.000235      0.000244      0.000087      0.000000
     28 C     c      -0.000109      0.000283      0.000148      0.000000
     29 C     c      -0.000035      0.000506     -0.000184      0.000000
     30 C     c      -0.000323      0.000147      0.000016      0.000000
     31 C     c       0.000029     -0.000133      0.000354      0.000000
     32 C     c      -0.000895     -0.000096      0.000641      0.000000
     33 C     c      -0.000250      0.000174     -0.000146      0.000000
     34 C     c       0.000064     -0.000470      0.000167      0.000000
     35 C     c      -0.000036     -0.000093     -0.000189      0.000000
     36 C     c      -0.000258      0.000093     -0.000148      0.000000
     37 C     c       0.000146     -0.000295     -0.000183      0.000000
     38 C     c       0.000268     -0.000345      0.000514      0.000000
     39 C     c      -0.000305     -0.000024     -0.000202      0.000000
     40 C     c       0.000285      0.000132      0.000001      0.000000
     41 C     c       0.000032     -0.000247      0.000181      0.000000
     42 C     c      -0.000119      0.000216      0.000233      0.000000
     43 C     c       0.000068      0.000220      0.000195      0.000000
     44 C     c       0.000389      0.000709      0.000048      0.000000
     45 C     c       0.000073      0.000306      0.000177      0.000000
     46 C     c      -0.000105     -0.000521     -0.000014      0.000000
     47 C     c      -0.000262     -0.000295     -0.000150      0.000000
     48 C     c      -0.000326     -0.000184      0.000011      0.000000
     49 C     c       0.000716     -0.000137      0.000310      0.000000
     50 C     c       0.000289      0.000108     -0.000703      0.000000
     51 C     c       0.000263     -0.000147     -0.000132      0.000000
     52 C     c       0.000292      0.000159      0.000068      0.000000
     53 C     c      -0.001853     -0.001226     -0.000113      0.000000
     54 C     c       0.000122     -0.000314      0.000225      0.000000
     55 C     c      -0.000216     -0.000210     -0.000348      0.000000
     56 C     c      -0.000332     -0.000202     -0.000251      0.000000
     57 C     c      -0.000554     -0.000202      0.000623      0.000000
     58 C     c       0.000022      0.000005     -0.000264      0.000000
     59 C     c       0.000101      0.000048      0.000072      0.000000
     60 C     c       0.001431      0.000335      0.000712      0.000000
     61 C     c      -0.000380      0.000112     -0.000285      0.000000
     62 C     c      -0.000216      0.000057     -0.000095      0.000000
     63 C     c       0.000428      0.001697     -0.000337      0.000000
     64 C     c       0.000141      0.000033      0.000032      0.000000
  Maximum abs         0.001853      0.001697      0.000712      0.000000

  Time to end of optimisation =       0.9567 seconds

  Timing analysis for GULP :

  Task / Subroutine                                          Time (Seconds)
  Calculation of Brenner energy and derivatives                   0.3423
  Calculation and manipulation of Hessian matrix                  0.5506

  CIF file written as rfo.cif

  Job Finished at 16:48.10 11th August     2020