  Job Started  at 23:34.07 10th August     2020

  Number of CPUs =     1

  Total number of configurations input =      1

*  Input for Configuration =   1                                               *

  Formula = C64

  Number of irreducible atoms/shells =      64

  Total number atoms/shells =      64

  Dimensionality = 3               :  Bulk

  Cartesian lattice vectors (Angstroms) :

        7.569600    0.000000    0.000000
        0.000000    7.569600    0.000000
        0.000000    0.000000    7.569600

  Cell parameters (Angstroms/Degrees):

  a =       7.5696    alpha =  90.0000
  b =       7.5696    beta  =  90.0000
  c =       7.5696    gamma =  90.0000

  Initial cell volume =         433.729331 Angs**3

  Temperature of configuration =   0.00     K

  Pressure of configuration =         0.000 GPa

  Fractional coordinates of asymmetric unit :

   No.  Atomic       x           y          z         Charge      Occupancy
        Label      (Frac)      (Frac)     (Frac)        (e)         (Frac)
      1 C     c    0.025100    0.587150    0.365320     0.00000    1.000000
      2 C     c    0.262920 *  0.103410 *  0.104730 *   0.00000    1.000000
      3 C     c    0.101350 *  0.438240 *  0.267670 *   0.00000    1.000000
      4 C     c    0.887170 *  0.967670 *  0.449850 *   0.00000    1.000000
      5 C     c    0.476310 *  0.916910 *  0.985380 *   0.00000    1.000000
      6 C     c    0.792380 *  0.447120 *  0.218980 *   0.00000    1.000000
      7 C     c    0.924480 *  0.637650 *  0.717310 *   0.00000    1.000000
      8 C     c    0.811400 *  0.557970 *  0.589210 *   0.00000    1.000000
      9 C     c    0.135640 *  0.381130 *  0.633750 *   0.00000    1.000000
     10 C     c    0.404480 *  0.770090 *  0.119320 *   0.00000    1.000000
     11 C     c    0.892480 *  0.259950 *  0.745230 *   0.00000    1.000000
     12 C     c    0.573910 *  0.902720 *  0.556840 *   0.00000    1.000000
     13 C     c    0.428870 *  0.241140 *  0.632040 *   0.00000    1.000000
     14 C     c    0.202470 *  0.983740 *  0.797110 *   0.00000    1.000000
     15 C     c    0.525880 *  0.611750 *  0.404300 *   0.00000    1.000000
     16 C     c    0.985500 *  0.938840 *  0.116580 *   0.00000    1.000000
     17 C     c    0.137610 *  0.821480 *  0.857740 *   0.00000    1.000000
     18 C     c    0.351910 *  0.690010 *  0.661380 *   0.00000    1.000000
     19 C     c    0.741310 *  0.385810 *  0.680460 *   0.00000    1.000000
     20 C     c    0.050330 *  0.257490 *  0.263610 *   0.00000    1.000000
     21 C     c    0.936410 *  0.176070 *  0.419170 *   0.00000    1.000000
     22 C     c    0.844780 *  0.621320 *  0.414150 *   0.00000    1.000000
     23 C     c    0.483230 *  0.819430 *  0.687860 *   0.00000    1.000000
     24 C     c    0.796850 *  0.294180 *  0.323520 *   0.00000    1.000000
     25 C     c    0.665430 *  0.160510 *  0.013380 *   0.00000    1.000000
     26 C     c    0.523160 *  0.609470 *  0.090660 *   0.00000    1.000000
     27 C     c    0.608590 *  0.278440 *  0.570480 *   0.00000    1.000000
     28 C     c    0.632740 *  0.987810 *  0.118060 *   0.00000    1.000000
     29 C     c    0.479260 *  0.919470 *  0.249310 *   0.00000    1.000000
     30 C     c    0.343010 *  0.057670 *  0.919320 *   0.00000    1.000000
     31 C     c    0.809280 *  0.115180 *  0.880710 *   0.00000    1.000000
     32 C     c    0.878960 *  0.769360 *  0.839450 *   0.00000    1.000000
     33 C     c    0.312260 *  0.395180 *  0.573030 *   0.00000    1.000000
     34 C     c    0.226160 *  0.691150 *  0.125260 *   0.00000    1.000000
     35 C     c    0.074420 *  0.509910 *  0.776790 *   0.00000    1.000000
     36 C     c    0.327980 *  0.107110 *  0.509160 *   0.00000    1.000000
     37 C     c    0.125860 *  0.738910 *  0.426020 *   0.00000    1.000000
     38 C     c    0.541530 *  0.319980 *  0.957240 *   0.00000    1.000000
     39 C     c    0.060220 *  0.131610 *  0.106160 *   0.00000    1.000000
     40 C     c    0.774150 *  0.940120 *  0.797050 *   0.00000    1.000000
     41 C     c    0.395770 *  0.560040 *  0.530340 *   0.00000    1.000000
     42 C     c    0.072920 *  0.895830 *  0.497030 *   0.00000    1.000000
     43 C     c    0.003550 *  0.429260 *  0.951650 *   0.00000    1.000000
     44 C     c    0.238920 *  0.507050 *  0.154990 *   0.00000    1.000000
     45 C     c    0.200280 *  0.669960 *  0.767130 *   0.00000    1.000000
     46 C     c    0.898940 *  0.525990 *  0.081130 *   0.00000    1.000000
     47 C     c    0.798260 *  0.866300 *  0.156440 *   0.00000    1.000000
     48 C     c    0.985740 *  0.224080 *  0.948190 *   0.00000    1.000000
     49 C     c    0.778640 *  0.806930 *  0.350870 *   0.00000    1.000000
     50 C     c    0.823150 *  0.703600 *  0.024560 *   0.00000    1.000000
     51 C     c    0.160180 *  0.043010 *  0.607260 *   0.00000    1.000000
     52 C     c    0.474560 *  0.268830 *  0.277510 *   0.00000    1.000000
     53 C     c    0.433550 *  0.402960 *  0.122800 *   0.00000    1.000000
     54 C     c    0.363930 *  0.091230 *  0.291090 *   0.00000    1.000000
     55 C     c    0.626270 *  0.267800 *  0.390540 *   0.00000    1.000000
     56 C     c    0.427300 *  0.213250 *  0.829230 *   0.00000    1.000000
     57 C     c    0.641620 *  0.458580 *  0.847160 *   0.00000    1.000000
     58 C     c    0.744040 *  0.961990 *  0.603360 *   0.00000    1.000000
     59 C     c    0.097840 *  0.802160 *  0.041590 *   0.00000    1.000000
     60 C     c    0.623680 *  0.539060 *  0.253400 *   0.00000    1.000000
     61 C     c    0.574070 *  0.815990 *  0.387170 *   0.00000    1.000000
     62 C     c    0.029440 *  0.210170 *  0.601810 *   0.00000    1.000000
     63 C     c    0.641420 *  0.641000 *  0.933820 *   0.00000    1.000000
     64 C     c    0.590890 *  0.825050 *  0.852390 *   0.00000    1.000000

  Constraints :

  Constraint no.      Unconstrained     Constrained    Coefficient    Offset
                         Variable         Variable
           1              Strain 1        Strain 2       1.00000      0.0000
           2              Strain 1        Strain 3       1.00000      0.0000

  Brillouin zone sampling points :

  Point number          x          y          z            Weight
        1           0.000000   0.000000   0.000000     1.00000000

*  General input information                                                   *

  Species output for all configurations :

  Species    Type    Atomic    Atomic    Charge       Radii (Angs)     Library
                     Number     Mass       (e)     Cova   Ionic  VDW   Symbol
    C        Core        6      12.01   0.000000   0.770  0.000  1.530

  Lattice summation method               =    Ewald          (3-D)
                                         =    Parry          (2-D)
                                         =    Saunders et al (1-D)
  Accuracy factor for lattice sums       =   12.000

  Analytic derivatives to be used

  Time limit = Infinity

  Maximum range for interatomic potentials =    100000.000000 Angstroms

  Brenner et al 2002 potential to be used with explicit splines for P

*  Output for configuration   1                                                *

  Components of energy :

  Interatomic potentials     =           0.00000000 eV
  Brenner potentials         =        -428.06161595 eV
  Monopole - monopole (real) =           0.00000000 eV
  Monopole - monopole (recip)=           0.00000000 eV
  Monopole - monopole (total)=           0.00000000 eV
  Total lattice energy       =        -428.06161595 eV
  Total lattice energy       =          -41301.4024 kJ/(mole unit cells)

  Number of variables =      190

  Maximum number of calculations  =          2000
  Maximum Hessian update interval =            10
  Maximum step size               =   1.000000000
  Maximum parameter tolerance     =   0.000010000
  Maximum function  tolerance     =   0.000010000
  Maximum gradient  tolerance     =   0.001000000
  Maximum gradient  component     =   0.010000000

  Symmetry not applied to optimisation

  Cell parameters to be optimised using strains

  Conjugate gradient optimiser to be used

  Lower half triangular hessian to be used

  Minimiser to switch to RFO
  When gradient norm is less than     0.010000

  Start of bulk optimisation :

  ** Hessian has required structure
  ** Hessian has required structure
  ** Hessian has required structure

  **** Optimisation achieved ****

  Final energy =    -428.45932062 eV
  Final Gnorm  =       0.00004600

  Components of energy :

  Interatomic potentials     =           0.00000000 eV
  Brenner potentials         =        -428.45932062 eV
  Monopole - monopole (real) =           0.00000000 eV
  Monopole - monopole (recip)=           0.00000000 eV
  Monopole - monopole (total)=           0.00000000 eV
  Total lattice energy       =        -428.45932062 eV
  Total lattice energy       =          -41339.7748 kJ/(mole unit cells)

  Final fractional coordinates of atoms :

   No.  Atomic        x           y          z          Radius
        Label       (Frac)      (Frac)     (Frac)       (Angs)
     1  C     c     0.025100    0.587150    0.365320    0.000000
     2  C     c     0.261963    0.102346    0.107877    0.000000
     3  C     c     0.100082    0.438457    0.267702    0.000000
     4  C     c     0.878960    0.966818    0.452800    0.000000
     5  C     c     0.476974    0.917404    0.988741    0.000000
     6  C     c     0.786993    0.447151    0.220138    0.000000
     7  C     c     0.923045    0.637525    0.717046    0.000000
     8  C     c     0.810170    0.554565    0.590265    0.000000
     9  C     c     0.131788    0.380041    0.638712    0.000000
    10  C     c     0.404274    0.764551    0.117610    0.000000
    11  C     c     0.889705    0.256980    0.746614    0.000000
    12  C     c     0.569912    0.900621    0.557399    0.000000
    13  C     c     0.425646    0.240871    0.632439    0.000000
    14  C     c     0.200016    0.983727    0.798588    0.000000
    15  C     c     0.523059    0.608538    0.406758    0.000000
    16  C     c     0.987716    0.938203    0.121296    0.000000
    17  C     c     0.134675    0.821551    0.858209    0.000000
    18  C     c     0.347745    0.690115    0.662490    0.000000
    19  C     c     0.738193    0.384183    0.683430    0.000000
    20  C     c     0.046456    0.258107    0.266305    0.000000
    21  C     c     0.936078    0.173341    0.419846    0.000000
    22  C     c     0.843297    0.615882    0.414964    0.000000
    23  C     c     0.478470    0.818966    0.689891    0.000000
    24  C     c     0.794120    0.296782    0.327437    0.000000
    25  C     c     0.669442    0.161027    0.017329    0.000000
    26  C     c     0.520343    0.604653    0.088346    0.000000
    27  C     c     0.606081    0.280544    0.571439    0.000000
    28  C     c     0.633893    0.989522    0.119020    0.000000
    29  C     c     0.479158    0.916091    0.251293    0.000000
    30  C     c     0.339390    0.056683    0.923073    0.000000
    31  C     c     0.810284    0.113017    0.884120    0.000000
[...]
    55  C     c     0.624161    0.266268    0.391705    0.000000
    56  C     c     0.422294    0.211335    0.832229    0.000000
    57  C     c     0.643823    0.455719    0.850330    0.000000
    58  C     c     0.737119    0.967715    0.602664    0.000000
    59  C     c     0.099211    0.802471    0.043613    0.000000
    60  C     c     0.617727    0.536112    0.254434    0.000000
    61  C     c     0.572993    0.809178    0.390000    0.000000
    62  C     c     0.027000    0.208412    0.602339    0.000000
    63  C     c     0.640773    0.641503    0.932274    0.000000
    64  C     c     0.588561    0.824648    0.852350    0.000000

  Final Cartesian lattice vectors (Angstroms) :

[...]

  Final cell parameters and derivatives :

       a            7.573779 Angstrom     dE/de1(xx)    -0.003400 eV/strain
       b            7.573779 Angstrom     dE/de2(yy)     0.000000 eV/strain
       c            7.573779 Angstrom     dE/de3(zz)     0.000000 eV/strain
       alpha       90.000000 Degrees      dE/de4(yz)     0.000000 eV/strain
       beta        90.000000 Degrees      dE/de5(xz)     0.000000 eV/strain
       gamma       90.000000 Degrees      dE/de6(xy)     0.000000 eV/strain

  Primitive cell volume =           434.448127 Angs**3

  Density of cell =      2.937927 g/cm**3

  Non-primitive cell volume =           434.448127 Angs**3

  Final internal derivatives :

   No.  Atomic          a             b             c           Radius
        Label          (eV)          (eV)          (eV)        (eV/Angs)
      1 C     c       0.000000      0.000000      0.000000      0.000000
      2 C     c       0.000025     -0.000044      0.000082      0.000000
      3 C     c      -0.000511     -0.000723      0.000240      0.000000
      4 C     c       0.000050     -0.000019      0.000311      0.000000
      5 C     c      -0.000089      0.000146     -0.000021      0.000000
      6 C     c       0.000868      0.003044      0.003607      0.000000
      7 C     c      -0.000738     -0.000343     -0.000176      0.000000
      8 C     c       0.000462      0.001488     -0.000287      0.000000
      9 C     c      -0.000044     -0.000046     -0.000021      0.000000
     10 C     c       0.000029      0.000078      0.000095      0.000000
     11 C     c       0.000074      0.000020      0.000184      0.000000
     12 C     c       0.000164     -0.000036     -0.000109      0.000000
     13 C     c      -0.000145     -0.000118      0.000122      0.000000
     14 C     c       0.000038      0.000012     -0.000072      0.000000
     15 C     c       0.000037      0.000029      0.000090      0.000000
     16 C     c      -0.000049     -0.000057     -0.000094      0.000000
     17 C     c       0.000103      0.000077      0.000249      0.000000
     18 C     c       0.000071     -0.000278     -0.000143      0.000000
     19 C     c       0.000323     -0.000367      0.000439      0.000000
     20 C     c      -0.000567      0.000306      0.000232      0.000000
     21 C     c      -0.000116     -0.000117     -0.000015      0.000000
     22 C     c      -0.001406     -0.002720     -0.003038      0.000000
     23 C     c      -0.000054      0.000048      0.000052      0.000000
     24 C     c       0.000826     -0.000011     -0.000132      0.000000
     25 C     c      -0.000085     -0.000043      0.000006      0.000000
     26 C     c       0.000204      0.000000      0.000217      0.000000
     27 C     c      -0.000046      0.000123      0.000030      0.000000
     28 C     c       0.000195     -0.000017     -0.000033      0.000000
     29 C     c      -0.000014     -0.000013     -0.000083      0.000000
     30 C     c      -0.000041     -0.000070     -0.000009      0.000000
     31 C     c      -0.000031     -0.000237     -0.000227      0.000000
     32 C     c      -0.000781     -0.000659      0.001401      0.000000
     33 C     c       0.000432      0.000140      0.000051      0.000000
     34 C     c      -0.000243      0.000342     -0.000296      0.000000
     35 C     c      -0.000001     -0.000043     -0.000183      0.000000
     36 C     c      -0.000050      0.000107     -0.000088      0.000000
     37 C     c      -0.000497      0.001635      0.000848      0.000000
     38 C     c      -0.000069     -0.000029      0.000064      0.000000
     39 C     c       0.000008      0.000054     -0.000091      0.000000
     40 C     c       0.000443     -0.000405      0.000115      0.000000
     41 C     c      -0.000220      0.000061      0.000069      0.000000
     42 C     c       0.000440     -0.001791     -0.001033      0.000000
     43 C     c      -0.000064      0.000017      0.000022      0.000000
     44 C     c      -0.000152      0.000297      0.000060      0.000000
     45 C     c      -0.000284     -0.000116      0.000034      0.000000
     46 C     c       0.000036     -0.000031      0.000025      0.000000
     47 C     c      -0.000095      0.000047      0.000092      0.000000
     48 C     c      -0.000093      0.000053     -0.000062      0.000000
     49 C     c       0.000566      0.000198     -0.000204      0.000000
     50 C     c      -0.000226      0.000629     -0.001639      0.000000
     51 C     c       0.000137     -0.000094      0.000211      0.000000
     52 C     c      -0.000068     -0.000032     -0.000001      0.000000
     53 C     c       0.000254     -0.000059      0.000123      0.000000
     54 C     c      -0.000011     -0.000057     -0.000008      0.000000
     55 C     c       0.000125      0.000072     -0.000049      0.000000
     56 C     c      -0.000013      0.000013     -0.000020      0.000000
     57 C     c       0.000086      0.000184     -0.000013      0.000000
     58 C     c      -0.000068      0.000032     -0.000130      0.000000
     59 C     c       0.000166     -0.000265     -0.000168      0.000000
     60 C     c      -0.000038     -0.000197     -0.000129      0.000000
     61 C     c      -0.000193     -0.000087      0.000264      0.000000
     62 C     c      -0.000161      0.000380     -0.000020      0.000000
     63 C     c       0.000296     -0.000012     -0.000057      0.000000
     64 C     c       0.000199      0.000087     -0.000048      0.000000
  Maximum abs         0.001406      0.003044      0.003607      0.000000

  Elastic Constant Matrix: (Units=GPa)

  Indices      1         2         3         4         5         6
       1    356.9530  153.8711  187.8146    3.3396  -61.3712  -17.0196
       2    153.8711  464.8694  132.2569  -24.0222   -1.6386   37.5462
       3    187.8146  132.2569  551.6537  -16.9770  -56.8478    2.8508
       4      3.3396  -24.0222  -16.9770  137.1715   -3.1514  -22.0454
       5    -61.3712   -1.6386  -56.8478   -3.1514  149.3021  -18.6996
       6    -17.0196   37.5462    2.8508  -22.0454  -18.6996  138.8253

  Elastic Compliance Matrix: (Units=1/GPa)

  Indices      1         2         3         4         5         6
       1    0.004120 -0.001170 -0.000988 -0.000235  0.001425  0.000997
       2   -0.001170  0.002713 -0.000308  0.000303 -0.000677 -0.000914
       3   -0.000988 -0.000308  0.002279  0.000266  0.000466  0.000020
       4   -0.000235  0.000303  0.000266  0.007570  0.000309  0.001128
       5    0.001425 -0.000677  0.000466  0.000309  0.007639  0.001426
       6    0.000997 -0.000914  0.000020  0.001128  0.001426  0.007943

  Mechanical properties :

  Convention :                    Reuss         Voigt         Hill
  Bulk  Modulus (GPa)     =     239.18834     257.92902     248.55868
  Shear Modulus (GPa)     =     129.56645     145.02869     137.29757
  Velocity S-wave (km/s)  =       6.64088       7.02597       6.83614
  Velocity P-wave (km/s)  =      11.84127      12.39403      12.12080
  Compressibility (1/GPa) =    0.00418081
  Stress axis :                     x             y             z
  Youngs Moduli (GPa)     =     242.69472     368.57161     438.79869
  Poissons Ratio (x)      =                     0.43138       0.43344
  Poissons Ratio (y)      =       0.28405                     0.13500
  Poissons Ratio (z)      =       0.23973       0.11340

  Piezoelectric Strain Matrix: (Units=C/m**2)

  Indices      1         2         3         4         5         6
       x    -0.00000  -0.00000  -0.00000  -0.00000  -0.00000  -0.00000
       y    -0.00000  -0.00000  -0.00000  -0.00000  -0.00000  -0.00000
       z    -0.00000  -0.00000  -0.00000  -0.00000  -0.00000  -0.00000

  Piezoelectric Stress Matrix: (Units=10**-11 C/N)

  Indices      1         2         3         4         5         6
       x     0.00000   0.00000   0.00000   0.00000   0.00000   0.00000
       y     0.00000   0.00000   0.00000   0.00000   0.00000   0.00000
       z     0.00000   0.00000   0.00000   0.00000   0.00000   0.00000

  Static dielectric constant tensor :

              x         y         z
       x     1.00000   0.00000   0.00000
       y     0.00000   1.00000   0.00000
       z     0.00000   0.00000   1.00000

  Static refractive indices :

    1 =    1.00000      2 =    1.00000      3 =    1.00000

  Phonon Calculation :

  Number of k points for this configuration =        1

  K point      1 =   0.000000  0.000000  0.000000  Weight =    1.000

  Frequencies (cm-1) [NB: Negative implies an imaginary mode]:

   -0.00   -0.00    0.00  158.29  205.93  215.46  229.49  233.68  244.85
  256.97  269.67  283.46  288.56  295.63  301.11  305.58  325.36  336.01
  340.95  347.62  351.88  354.17  366.73  373.91  388.09  398.03  404.23
  407.97  422.13  428.81  441.52  446.16  453.71  458.13  461.98  469.60
  478.92  485.94  488.22  495.15  503.85  504.75  519.01  522.46  529.85
  535.92  546.08  555.08  565.53  574.53  579.81  589.79  595.57  598.36
  602.85  609.21  620.22  627.76  629.82  639.57  644.75  652.87  657.03
  660.99  669.31  676.31  694.61  696.32  703.08  709.29  720.72  726.02
  735.23  740.37  749.23  754.42  760.24  767.44  778.32  786.25  793.85
  797.60  800.42  802.49  811.16  820.46  831.56  840.23  848.34  852.11
  862.62  868.20  878.61  891.58  900.31  903.02  911.14  919.27  930.84
  932.97  944.55  951.87  959.29  970.30  976.10  979.10  992.37  996.14
 1006.79 1017.82 1021.32 1029.33 1039.33 1048.35 1052.54 1059.02 1068.77
 1071.56 1087.91 1090.72 1097.61 1108.10 1112.79 1115.57 1128.14 1134.98
 1142.38 1146.57 1166.09 1175.85 1187.62 1197.05 1199.18 1209.13 1215.82
 1218.63 1231.47 1235.63 1248.61 1252.83 1262.30 1271.41 1276.37 1291.09
 1297.11 1298.06 1300.73 1313.77 1322.16 1333.85 1341.37 1345.81 1353.56
 1360.90 1377.81 1383.54 1406.46 1412.54 1417.19 1427.63 1434.33 1443.25
 1454.97 1462.67 1471.23 1478.85 1482.98 1493.84 1507.33 1524.94 1528.08
 1547.93 1589.09 1612.87 1625.46 1644.62 1651.12 1653.04 1659.72 1674.39
 1697.75 1720.04 1728.54 1794.66 1795.65 1799.15 1812.60 1938.58 2461.95
 2534.62 2781.92 2906.62

  Phonon properties (per mole of unit cells): Temperature =      0.000 K
  Zero point energy            =       11.328337 eV

  Phonon density of states :

 Frequency (cm-1) Density of States
    0.00000 |********                                                      0.005
   45.41588 |                                                              0.000
   90.83177 |                                                              0.000
  136.24765 |********                                                      0.005
  181.66353 |*****************                                             0.011
  227.07942 |******************************************                    0.026
  272.49530 |******************************************                    0.026
  317.91118 |***************************************************           0.032
  363.32707 |***************************************************           0.032
  408.74295 |******************************************                    0.026
  454.15883 |************************************************************  0.037
  499.57471 |***************************************************           0.032
  544.99060 |***************************************************           0.032
  590.40648 |************************************************************  0.037
  635.82236 |************************************************************  0.037
  681.23825 |***************************************************           0.032
  726.65413 |***************************************************           0.032
  772.07001 |************************************************************  0.037
  817.48590 |***************************************************           0.032
  862.90178 |******************************************                    0.026
  908.31766 |***************************************************           0.032
  953.73355 |***************************************************           0.032
  999.14943 |******************************************                    0.026
 1044.56531 |***************************************************           0.032
 1089.98120 |************************************************************  0.037
 1135.39708 |**********************************                            0.021
 1180.81296 |***************************************************           0.032
 1226.22885 |***************************************************           0.032
 1271.64473 |***************************************************           0.032
 1317.06061 |***************************************************           0.032
 1362.47649 |*************************                                     0.016
 1407.89238 |******************************************                    0.026
 1453.30826 |***************************************************           0.032
 1498.72414 |*************************                                     0.016
 1544.14003 |*****************                                             0.011
 1589.55591 |*****************                                             0.011
 1634.97179 |******************************************                    0.026
 1680.38768 |*****************                                             0.011
 1725.80356 |********                                                      0.005
 1771.21944 |**********************************                            0.021
 1816.63533 |                                                              0.000
 1862.05121 |                                                              0.000
 1907.46709 |********                                                      0.005
 1952.88298 |                                                              0.000
 1998.29886 |                                                              0.000
 2043.71474 |                                                              0.000
 2089.13063 |                                                              0.000
 2134.54651 |                                                              0.000
 2179.96239 |                                                              0.000
 2225.37827 |                                                              0.000
 2270.79416 |                                                              0.000
 2316.21004 |                                                              0.000
 2361.62592 |                                                              0.000
 2407.04181 |                                                              0.000
 2452.45769 |********                                                      0.005
 2497.87357 |********                                                      0.005
 2543.28946 |                                                              0.000
 2588.70534 |                                                              0.000
 2634.12122 |                                                              0.000
 2679.53711 |                                                              0.000
 2724.95299 |                                                              0.000
 2770.36887 |********                                                      0.005
 2815.78476 |                                                              0.000
 2861.20064 |********                                                      0.005

  Time to end of optimisation =       1.1381 seconds

  Timing analysis for GULP :

  Task / Subroutine                                          Time (Seconds)
  Calculation of real space energy and derivatives                0.0001
  Calculation of Brenner energy and derivatives                   0.8283
  Calculation of phonons                                          0.1196
  Calculation and manipulation of Hessian matrix                  0.2117

  CIF file written as opti.cif

  Job Finished at 23:34.08 10th August     2020