  Job Started  at 14:02.15 31st July       2020

  Number of CPUs =     1

  Total number of configurations input =      1

*  Input for Configuration =   1                                               *

  Formula = C64

  Number of irreducible atoms/shells =      64

  Total number atoms/shells =      64

  Dimensionality = 3               :  Bulk

  Cartesian lattice vectors (Angstroms) :

        7.090300    0.000000    0.000000
        0.000000    7.090300    0.000000
        0.000000    0.000000    7.090300

  Cell parameters (Angstroms/Degrees):

  a =       7.0903    alpha =  90.0000
  b =       7.0903    beta  =  90.0000
  c =       7.0903    gamma =  90.0000

  Initial cell volume =         356.446072 Angs**3

  Temperature of configuration =   50.0     K

  Pressure of configuration =         0.000 GPa

  Fractional coordinates of asymmetric unit :

   No.  Atomic       x           y          z         Charge      Occupancy
        Label      (Frac)      (Frac)     (Frac)        (e)         (Frac)
      1 C     c    0.027883 *  0.588410 *  0.365133 *   0.00000    1.000000
      2 C     c    0.252570 *  0.018109 *  0.113535 *   0.00000    1.000000
      3 C     c    0.111124 *  0.473478 *  0.264911 *   0.00000    1.000000
      4 C     c    0.895590 *  0.937943 *  0.435496 *   0.00000    1.000000
      5 C     c    0.515225 *  0.919496 *  0.996643 *   0.00000    1.000000
      6 C     c    0.829457 *  0.486199 *  0.219892 *   0.00000    1.000000
      7 C     c    0.947393 *  0.600736 *  0.703158 *   0.00000    1.000000
      8 C     c    0.835889 *  0.489768 *  0.543729 *   0.00000    1.000000
      9 C     c    0.125101 *  0.365570 *  0.646658 *   0.00000    1.000000
     10 C     c    0.443902 *  0.781970 *  0.118528 *   0.00000    1.000000
     11 C     c    0.861557 *  0.240385 *  0.722113 *   0.00000    1.000000
     12 C     c    0.573488 *  0.913135 *  0.555632 *   0.00000    1.000000
     13 C     c    0.382410 *  0.244926 *  0.621850 *   0.00000    1.000000
     14 C     c    0.249143 *  0.892318 *  0.781744 *   0.00000    1.000000
     15 C     c    0.578523 *  0.627505 *  0.387318 *   0.00000    1.000000
     16 C     c    0.971440 *  0.957308 *  0.086484 *   0.00000    1.000000
     17 C     c    0.177581 *  0.740998 *  0.855831 *   0.00000    1.000000
     18 C     c    0.347588 *  0.682566 *  0.627294 *   0.00000    1.000000
     19 C     c    0.718869 *  0.346981 *  0.651284 *   0.00000    1.000000
     20 C     c    0.078177 *  0.258268 *  0.294459 *   0.00000    1.000000
     21 C     c    0.922613 *  0.131983 *  0.400434 *   0.00000    1.000000
     22 C     c    0.868271 *  0.596223 *  0.394229 *   0.00000    1.000000
     23 C     c    0.566549 *  0.772943 *  0.671086 *   0.00000    1.000000
     24 C     c    0.799966 *  0.300678 *  0.338053 *   0.00000    1.000000
     25 C     c    0.715583 *  0.193264 *  0.043369 *   0.00000    1.000000
     26 C     c    0.481997 *  0.585067 *  0.080984 *   0.00000    1.000000
     27 C     c    0.574447 *  0.256886 *  0.610214 *   0.00000    1.000000
     28 C     c    0.659859 *  0.994908 *  0.057713 *   0.00000    1.000000
     29 C     c    0.559074 *  0.979126 *  0.259636 *   0.00000    1.000000
     30 C     c    0.354809 *  0.963499 *  0.925913 *   0.00000    1.000000
     31 C     c    0.854449 *  0.132449 *  0.865069 *   0.00000    1.000000
     32 C     c    0.927069 *  0.731464 *  0.812462 *   0.00000    1.000000
     33 C     c    0.291638 *  0.397501 *  0.554137 *   0.00000    1.000000
     34 C     c    0.280849 *  0.749023 *  0.181572 *   0.00000    1.000000
     35 C     c    0.121165 *  0.478809 *  0.803436 *   0.00000    1.000000
     36 C     c    0.296250 *  0.080222 *  0.502517 *   0.00000    1.000000
     37 C     c    0.221810 *  0.723256 *  0.440743 *   0.00000    1.000000
     38 C     c    0.525718 *  0.347461 *  0.957449 *   0.00000    1.000000
     39 C     c    0.047530 *  0.135904 *  0.115863 *   0.00000    1.000000
     40 C     c    0.819909 *  0.943119 *  0.812378 *   0.00000    1.000000
     41 C     c    0.417232 *  0.555068 *  0.521233 *   0.00000    1.000000
     42 C     c    0.082253 *  0.893996 *  0.476101 *   0.00000    1.000000
     43 C     c    0.061648 *  0.426498 *  0.960171 *   0.00000    1.000000
     44 C     c    0.202798 *  0.540993 *  0.116243 *   0.00000    1.000000
     45 C     c    0.277252 *  0.551035 *  0.836199 *   0.00000    1.000000
     46 C     c    0.906887 *  0.524999 *  0.026134 *   0.00000    1.000000
     47 C     c    0.818315 *  0.854012 *  0.061041 *   0.00000    1.000000
     48 C     c    0.053862 *  0.230004 *  0.934911 *   0.00000    1.000000
     49 C     c    0.801842 *  0.831559 *  0.309789 *   0.00000    1.000000
     50 C     c    0.794959 *  0.659366 *  0.986869 *   0.00000    1.000000
     51 C     c    0.155692 *  0.047967 *  0.612160 *   0.00000    1.000000
     52 C     c    0.418769 *  0.279551 *  0.238128 *   0.00000    1.000000
     53 C     c    0.365246 *  0.431435 *  0.064990 *   0.00000    1.000000
     54 C     c    0.337165 *  0.094270 *  0.297519 *   0.00000    1.000000
     55 C     c    0.570977 *  0.212346 *  0.404454 *   0.00000    1.000000
     56 C     c    0.398361 *  0.179005 *  0.824098 *   0.00000    1.000000
     57 C     c    0.643414 *  0.448980 *  0.826792 *   0.00000    1.000000
     58 C     c    0.781053 *  0.927831 *  0.602302 *   0.00000    1.000000
     59 C     c    0.143224 *  0.822405 *  0.057205 *   0.00000    1.000000
     60 C     c    0.628676 *  0.536268 *  0.265687 *   0.00000    1.000000
     61 C     c    0.585194 *  0.821263 *  0.380745 *   0.00000    1.000000
     62 C     c    0.005867 *  0.168850 *  0.607111 *   0.00000    1.000000
     63 C     c    0.643894 *  0.628196 *  0.914080 *   0.00000    1.000000
     64 C     c    0.623175 *  0.836438 *  0.833322 *   0.00000    1.000000

  Constraints :

  Constraint no.      Unconstrained     Constrained    Coefficient    Offset
                         Variable         Variable
           1              Strain 1        Strain 2       1.00000      0.0000
           2              Strain 1        Strain 3       1.00000      0.0000

*  General input information                                                   *

  Species output for all configurations :

  Species    Type    Atomic    Atomic    Charge       Radii (Angs)     Library
                     Number     Mass       (e)     Cova   Ionic  VDW   Symbol
    C        Core        6      12.01   0.000000   0.770  0.000  1.530

  Lattice summation method               =    Ewald          (3-D)
                                         =    Parry          (2-D)
                                         =    Saunders et al (1-D)
  Accuracy factor for lattice sums       =   12.000

  Analytic derivatives to be used

  Time limit = Infinity

  Maximum range for interatomic potentials =    100000.000000 Angstroms

  Brenner et al 2002 potential to be used with explicit splines for P

*  Output for configuration   1                                                *

  Components of energy :

  Interatomic potentials     =           0.00000000 eV
  Brenner potentials         =        -284.85077998 eV
  Monopole - monopole (real) =           0.00000000 eV
  Monopole - monopole (recip)=           0.00000000 eV
  Monopole - monopole (total)=           0.00000000 eV
  Total lattice energy       =        -284.85077998 eV
  Total lattice energy       =          -27483.7459 kJ/(mole unit cells)

  Equations of motion will be integrated using the leapfrog Verlet algorithm.

*  Molecular Dynamics                                                          *

  Isothermal/baric ensemble (NPT) to be used

  Friction for temperature bath =           0.000500
  Friction for pressure    bath =           0.000500

  No. of mobile ions        =                 64

  No. of degrees of freedom =                189

  Time step                 =           0.000100 ps
  Equilibration time        =           5.000000 ps
  Production time           =           0.000000 ps
  Scaling time              =           5.000000 ps
  Scaling frequency         =           0.000100 ps
  Sampling frequency        =           0.005000 ps
  Write frequency           =           0.002000 ps
  TD-Force start time       =           0.000000 ps
  TD-Field start time       =           0.000000 ps

  Molecular dynamics equilibration :

  ** Time :            0.00500 ps :
     Properties:                   Instantaneous       Averaged
       Kinetic energy    (eV) =       0.586459          0.586459
       Potential energy  (eV) =    -322.774581       -322.774581
       Total energy      (eV) =    -322.188123       -322.188123
       Temperature       (K)  =      72.016522         72.016522
       Pressure         (GPa) =     132.690527        132.690527
       Cell parameter : a (A) =       7.117806          7.117806
       Cell parameter : b (A) =       7.114281          7.114281
       Cell parameter : c (A) =       7.111487          7.111487
       Cell angle : alpha (o) =      89.973634         89.973634
       Cell angle : beta  (o) =      89.995654         89.995654
       Cell angle : gamma (o) =      89.977183         89.977183
       Cell volume :   (A**3) =     360.111872        360.111872
  ** Time :            0.01000 ps :
     Properties:                   Instantaneous       Averaged
       Kinetic energy    (eV) =       0.530961          0.558710
       Potential energy  (eV) =    -343.474951       -333.124766
       Total energy      (eV) =    -342.943990       -332.566057
       Temperature       (K)  =      65.201472         68.608997
       Pressure         (GPa) =     100.406590        116.083209
       Cell parameter : a (A) =       7.136438          7.127122
       Cell parameter : b (A) =       7.131354          7.122818
       Cell parameter : c (A) =       7.125921          7.118704
       Cell angle : alpha (o) =      89.969057         89.971345
       Cell angle : beta  (o) =      90.004098         89.999876
       Cell angle : gamma (o) =      89.967107         89.972145
       Cell volume :   (A**3) =     362.655559        361.383716
  ** Time :            0.01500 ps :
     Properties:                   Instantaneous       Averaged
       Kinetic energy    (eV) =       0.494893          0.537437
       Potential energy  (eV) =    -356.962197       -341.070577
       Total energy      (eV) =    -356.467304       -340.533139
       Temperature       (K)  =      60.772322         65.996772
       Pressure         (GPa) =      85.889142        105.578812
       Cell parameter : a (A) =       7.151220          7.135154
       Cell parameter : b (A) =       7.145474          7.130370
       Cell parameter : c (A) =       7.137694          7.125034
       Cell angle : alpha (o) =      89.968739         89.970476
       Cell angle : beta  (o) =      90.017595         90.005782
       Cell angle : gamma (o) =      89.959963         89.968084
       Cell volume :   (A**3) =     364.727872        362.498434
  ** Time :            0.02000 ps :
     Properties:                   Instantaneous       Averaged
[...]
       Cell parameter : c (A) =       7.563171          7.540458
       Cell angle : alpha (o) =      88.514901         88.970680
       Cell angle : beta  (o) =      91.840916         91.481498
       Cell angle : gamma (o) =      87.648384         88.297220
       Cell volume :   (A**3) =     425.814132        423.662844
  ** Time :            4.91500 ps :
     Properties:                   Instantaneous       Averaged
       Kinetic energy    (eV) =       0.407496          0.408024
       Potential energy  (eV) =    -423.929324       -422.909621
       Total energy      (eV) =    -423.521828       -422.501597
       Temperature       (K)  =      50.040106         50.104929
       Pressure         (GPa) =       0.102112          2.417500
       Cell parameter : a (A) =       7.646623          7.620041
       Cell parameter : b (A) =       7.375693          7.380215
       Cell parameter : c (A) =       7.563149          7.540481
       Cell angle : alpha (o) =      88.514011         88.970216
       Cell angle : beta  (o) =      91.841171         91.481864
       Cell angle : gamma (o) =      87.646523         88.296558
       Cell volume :   (A**3) =     425.816664        423.665035
  ** Time :            4.92000 ps :
     Properties:                   Instantaneous       Averaged
       Kinetic energy    (eV) =       0.406431          0.408022
       Potential energy  (eV) =    -423.895544       -422.910623
       Total energy      (eV) =    -423.489114       -422.502601
       Temperature       (K)  =      49.909293         50.104730
       Pressure         (GPa) =       0.221612          2.415225
       Cell parameter : a (A) =       7.646697          7.620068
       Cell parameter : b (A) =       7.375792          7.380210
       Cell parameter : c (A) =       7.563125          7.540504
       Cell angle : alpha (o) =      88.512640         88.969751
       Cell angle : beta  (o) =      91.841257         91.482229
       Cell angle : gamma (o) =      87.645037         88.295896
       Cell volume :   (A**3) =     425.824341        423.667230
  ** Time :            4.92500 ps :
     Properties:                   Instantaneous       Averaged
       Kinetic energy    (eV) =       0.407618          0.408022
       Potential energy  (eV) =    -423.866567       -422.911594
       Total energy      (eV) =    -423.458949       -422.503572
       Temperature       (K)  =      50.055097         50.104679
       Pressure         (GPa) =      -0.062950          2.412701
       Cell parameter : a (A) =       7.646650          7.620095
       Cell parameter : b (A) =       7.375940          7.380206
       Cell parameter : c (A) =       7.563044          7.540527
       Cell angle : alpha (o) =      88.511714         88.969286
       Cell angle : beta  (o) =      91.840321         91.482593
       Cell angle : gamma (o) =      87.645106         88.295235
       Cell volume :   (A**3) =     425.825797        423.669421
  ** Time :            4.93000 ps :
     Properties:                   Instantaneous       Averaged
       Kinetic energy    (eV) =       0.406362          0.408020
       Potential energy  (eV) =    -423.906855       -422.912603
       Total energy      (eV) =    -423.500493       -422.504583
       Temperature       (K)  =      49.900869         50.104473
       Pressure         (GPa) =       0.376105          2.410635
       Cell parameter : a (A) =       7.646685          7.620122
       Cell parameter : b (A) =       7.375982          7.380201
       Cell parameter : c (A) =       7.562958          7.540550
       Cell angle : alpha (o) =      88.512100         88.968822
       Cell angle : beta  (o) =      91.839514         91.482954
       Cell angle : gamma (o) =      87.645732         88.294576
       Cell volume :   (A**3) =     425.825831        423.671608
  ** Time :            4.93500 ps :
     Properties:                   Instantaneous       Averaged
       Kinetic energy    (eV) =       0.407056          0.408019
       Potential energy  (eV) =    -423.811663       -422.913514
       Total energy      (eV) =    -423.404607       -422.505495
       Temperature       (K)  =      49.986065         50.104353
       Pressure         (GPa) =       1.175417          2.409225
       Cell parameter : a (A) =       7.646923          7.620149
       Cell parameter : b (A) =       7.375987          7.380197
       Cell parameter : c (A) =       7.563217          7.540573
       Cell angle : alpha (o) =      88.513190         88.968360
       Cell angle : beta  (o) =      91.840232         91.483316
       Cell angle : gamma (o) =      87.645367         88.293918
       Cell volume :   (A**3) =     425.853845        423.673819
  ** Time :            4.94000 ps :
     Properties:                   Instantaneous       Averaged
       Kinetic energy    (eV) =       0.408529          0.408020
       Potential energy  (eV) =    -423.930910       -422.914544
       Total energy      (eV) =    -423.522380       -422.506524
       Temperature       (K)  =      50.166992         50.104416
       Pressure         (GPa) =       0.918731          2.407528
       Cell parameter : a (A) =       7.647161          7.620176
       Cell parameter : b (A) =       7.376099          7.380193
       Cell parameter : c (A) =       7.563465          7.540596
       Cell angle : alpha (o) =      88.513350         88.967900
       Cell angle : beta  (o) =      91.840900         91.483678
       Cell angle : gamma (o) =      87.644712         88.293261
       Cell volume :   (A**3) =     425.887200        423.676060
  ** Time :            4.94500 ps :
     Properties:                   Instantaneous       Averaged
       Kinetic energy    (eV) =       0.407072          0.408019
       Potential energy  (eV) =    -423.959244       -422.915600
       Total energy      (eV) =    -423.552172       -422.507581
       Temperature       (K)  =      49.988011         50.104298
       Pressure         (GPa) =       0.256351          2.405244
       Cell parameter : a (A) =       7.647199          7.620203
       Cell parameter : b (A) =       7.376143          7.380189
       Cell parameter : c (A) =       7.563727          7.540619
       Cell angle : alpha (o) =      88.512261         88.967439
       Cell angle : beta  (o) =      91.841228         91.484040
       Cell angle : gamma (o) =      87.644982         88.292606
       Cell volume :   (A**3) =     425.906478        423.678315
  ** Time :            4.95000 ps :
     Properties:                   Instantaneous       Averaged
       Kinetic energy    (eV) =       0.406892          0.408018
       Potential energy  (eV) =    -423.943507       -422.916638
       Total energy      (eV) =    -423.536615       -422.508621
       Temperature       (K)  =      49.965974         50.104159
       Pressure         (GPa) =       0.030955          2.402848
       Cell parameter : a (A) =       7.647293          7.620231
       Cell parameter : b (A) =       7.376086          7.380185
       Cell parameter : c (A) =       7.563684          7.540642
       Cell angle : alpha (o) =      88.511921         88.966979
       Cell angle : beta  (o) =      91.840610         91.484400
       Cell angle : gamma (o) =      87.645270         88.291952
       Cell volume :   (A**3) =     425.906118        423.680565
  ** Time :            4.95500 ps :
     Properties:                   Instantaneous       Averaged
       Kinetic energy    (eV) =       0.406193          0.408016
       Potential energy  (eV) =    -423.932179       -422.917663
       Total energy      (eV) =    -423.525987       -422.509647
       Temperature       (K)  =      49.880048         50.103933
       Pressure         (GPa) =      -0.636190          2.399833
       Cell parameter : a (A) =       7.647420          7.620258
       Cell parameter : b (A) =       7.375923          7.380180
       Cell parameter : c (A) =       7.563565          7.540666
       Cell angle : alpha (o) =      88.512405         88.966520
       Cell angle : beta  (o) =      91.840039         91.484759
       Cell angle : gamma (o) =      87.644180         88.291298
       Cell volume :   (A**3) =     425.896942        423.682802
  ** Time :            4.96000 ps :
     Properties:                   Instantaneous       Averaged
       Kinetic energy    (eV) =       0.406548          0.408014
       Potential energy  (eV) =    -423.858632       -422.918612
       Total energy      (eV) =    -423.452084       -422.510597
       Temperature       (K)  =      49.923733         50.103751
       Pressure         (GPa) =      -0.500878          2.397013
       Cell parameter : a (A) =       7.647191          7.620285
       Cell parameter : b (A) =       7.375718          7.380176
       Cell parameter : c (A) =       7.563685          7.540689
       Cell angle : alpha (o) =      88.512473         88.966062
       Cell angle : beta  (o) =      91.840340         91.485117
       Cell angle : gamma (o) =      87.642366         88.290644
       Cell volume :   (A**3) =     425.878498        423.685015
  ** Time :            4.96500 ps :
     Properties:                   Instantaneous       Averaged
       Kinetic energy    (eV) =       0.408165          0.408014
       Potential energy  (eV) =    -423.866872       -422.919567
       Total energy      (eV) =    -423.458708       -422.511552
       Temperature       (K)  =      50.122208         50.103770
       Pressure         (GPa) =      -0.416794          2.394260
       Cell parameter : a (A) =       7.646967          7.620312
       Cell parameter : b (A) =       7.375710          7.380171
       Cell parameter : c (A) =       7.563668          7.540712
       Cell angle : alpha (o) =      88.512071         88.965605
       Cell angle : beta  (o) =      91.839988         91.485475
       Cell angle : gamma (o) =      87.640764         88.289990
       Cell volume :   (A**3) =     425.864062        423.687209
  ** Time :            4.97000 ps :
     Properties:                   Instantaneous       Averaged
       Kinetic energy    (eV) =       0.407753          0.408014
       Potential energy  (eV) =    -423.976952       -422.920630
       Total energy      (eV) =    -423.569199       -422.512616
       Temperature       (K)  =      50.071638         50.103737
       Pressure         (GPa) =      -0.435480          2.391487
       Cell parameter : a (A) =       7.646853          7.620339
       Cell parameter : b (A) =       7.375695          7.380167
       Cell parameter : c (A) =       7.563568          7.540735
       Cell angle : alpha (o) =      88.512208         88.965149
       Cell angle : beta  (o) =      91.840063         91.485832
       Cell angle : gamma (o) =      87.640013         88.289336
       Cell volume :   (A**3) =     425.851026        423.689386
  ** Time :            4.97500 ps :
     Properties:                   Instantaneous       Averaged
       Kinetic energy    (eV) =       0.405887          0.408012
       Potential energy  (eV) =    -423.913731       -422.921629
       Total energy      (eV) =    -423.507844       -422.513617
       Temperature       (K)  =      49.842524         50.103475
       Pressure         (GPa) =       0.077893          2.389201
       Cell parameter : a (A) =       7.646869          7.620366
       Cell parameter : b (A) =       7.375682          7.380162
       Cell parameter : c (A) =       7.563443          7.540758
       Cell angle : alpha (o) =      88.512677         88.964694
       Cell angle : beta  (o) =      91.840734         91.486188
       Cell angle : gamma (o) =      87.639631         88.288683
       Cell volume :   (A**3) =     425.843917        423.691552
  ** Time :            4.98000 ps :
     Properties:                   Instantaneous       Averaged
       Kinetic energy    (eV) =       0.406764          0.408011
       Potential energy  (eV) =    -423.851787       -422.922562
       Total energy      (eV) =    -423.445023       -422.514552
       Temperature       (K)  =      49.950200         50.103321
       Pressure         (GPa) =       0.408477          2.387154
       Cell parameter : a (A) =       7.646861          7.620392
       Cell parameter : b (A) =       7.375762          7.380158
       Cell parameter : c (A) =       7.563563          7.540781
       Cell angle : alpha (o) =      88.511774         88.964240
       Cell angle : beta  (o) =      91.842260         91.486546
       Cell angle : gamma (o) =      87.639801         88.288031
       Cell volume :   (A**3) =     425.854415        423.693723
  ** Time :            4.98500 ps :
     Properties:                   Instantaneous       Averaged
       Kinetic energy    (eV) =       0.407760          0.408011
       Potential energy  (eV) =    -423.887369       -422.923530
       Total energy      (eV) =    -423.479609       -422.515520
       Temperature       (K)  =      50.072495         50.103290
       Pressure         (GPa) =      -0.199246          2.384541
       Cell parameter : a (A) =       7.646749          7.620419
       Cell parameter : b (A) =       7.375816          7.380154
       Cell parameter : c (A) =       7.563689          7.540804
       Cell angle : alpha (o) =      88.509580         88.963784
       Cell angle : beta  (o) =      91.844037         91.486904
       Cell angle : gamma (o) =      87.640834         88.287382
       Cell volume :   (A**3) =     425.857793        423.695894
  ** Time :            4.99000 ps :
     Properties:                   Instantaneous       Averaged
       Kinetic energy    (eV) =       0.407111          0.408010
       Potential energy  (eV) =    -423.918534       -422.924527
       Total energy      (eV) =    -423.511423       -422.516518
       Temperature       (K)  =      49.992810         50.103179
       Pressure         (GPa) =      -0.307528          2.381897
       Cell parameter : a (A) =       7.646666          7.620445
       Cell parameter : b (A) =       7.375845          7.380149
       Cell parameter : c (A) =       7.563570          7.540826
       Cell angle : alpha (o) =      88.508163         88.963327
       Cell angle : beta  (o) =      91.843779         91.487262
       Cell angle : gamma (o) =      87.641889         88.286735
       Cell volume :   (A**3) =     425.848270        423.698050
  ** Time :            4.99500 ps :
     Properties:                   Instantaneous       Averaged
       Kinetic energy    (eV) =       0.406907          0.408009
       Potential energy  (eV) =    -423.873157       -422.925477
       Total energy      (eV) =    -423.466250       -422.517468
       Temperature       (K)  =      49.967765         50.103044
       Pressure         (GPa) =      -0.121015          2.379428
       Cell parameter : a (A) =       7.646611          7.620471
       Cell parameter : b (A) =       7.375816          7.380145
       Cell parameter : c (A) =       7.563531          7.540849
       Cell angle : alpha (o) =      88.507868         88.962871
       Cell angle : beta  (o) =      91.842701         91.487618
       Cell angle : gamma (o) =      87.642253         88.286090
       Cell volume :   (A**3) =     425.841611        423.700196
  ** Time :            5.00000 ps :
     Properties:                   Instantaneous       Averaged
       Kinetic energy    (eV) =       0.407095          0.408008
       Potential energy  (eV) =    -423.858333       -422.926410
       Total energy      (eV) =    -423.451239       -422.518402
       Temperature       (K)  =      49.990820         50.102931
       Pressure         (GPa) =      -0.015619          2.377041
       Cell parameter : a (A) =       7.646506          7.620497
       Cell parameter : b (A) =       7.375882          7.380141
       Cell parameter : c (A) =       7.563540          7.540872
       Cell angle : alpha (o) =      88.508407         88.962417
       Cell angle : beta  (o) =      91.842031         91.487972
       Cell angle : gamma (o) =      87.641919         88.285446
       Cell volume :   (A**3) =     425.840285        423.702336

  Timing analysis for GULP :

  Task / Subroutine                                          Time (Seconds)
  Calculation of Brenner energy and derivatives                 360.8687
  Calculation of matrix inversion                                 0.1984
  Molecular dynamics - update of geometry                         1.3870
  Molecular dynamics - predictor                                  0.1239
  Molecular dynamics - corrector                                  2.1837
  Molecular dynamics - velocity correction                        1.0105

  CIF file written as dm.cif

  Job Finished at 14:08.23 31st July       2020