  Job Started  at 23:31.08 10th August     2020

  Number of CPUs =     1

  Total number of configurations input =      1

*  Input for Configuration =   1                                               *

  Formula = C64

  Number of irreducible atoms/shells =      64

  Total number atoms/shells =      64

  Dimensionality = 3               :  Bulk

  Cartesian lattice vectors (Angstroms) :

        7.569600    0.000000    0.000000
        0.000000    7.569600    0.000000
        0.000000    0.000000    7.569600

  Cell parameters (Angstroms/Degrees):

  a =       7.5696    alpha =  90.0000
  b =       7.5696    beta  =  90.0000
  c =       7.5696    gamma =  90.0000

  Initial cell volume =         433.729331 Angs**3

  Temperature of configuration =   50.0     K

  Pressure of configuration =         0.000 GPa

  Fractional coordinates of asymmetric unit :

   No.  Atomic       x           y          z         Charge      Occupancy
        Label      (Frac)      (Frac)     (Frac)        (e)         (Frac)
      1 C     c    0.027880 *  0.588410 *  0.365130 *   0.00000    1.000000
      2 C     c    0.268010 *  0.100450 *  0.108470 *   0.00000    1.000000
      3 C     c    0.104330 *  0.438990 *  0.269070 *   0.00000    1.000000
      4 C     c    0.880380 *  0.966840 *  0.452510 *   0.00000    1.000000
      5 C     c    0.479920 *  0.919870 *  0.988000 *   0.00000    1.000000
      6 C     c    0.790320 *  0.446740 *  0.218600 *   0.00000    1.000000
      7 C     c    0.924770 *  0.638750 *  0.715330 *   0.00000    1.000000
      8 C     c    0.809580 *  0.559800 *  0.587630 *   0.00000    1.000000
      9 C     c    0.131330 *  0.381090 *  0.635900 *   0.00000    1.000000
     10 C     c    0.408160 *  0.766420 *  0.116970 *   0.00000    1.000000
     11 C     c    0.868590 *  0.256460 *  0.728520 *   0.00000    1.000000
     12 C     c    0.573420 *  0.901730 *  0.557920 *   0.00000    1.000000
     13 C     c    0.422110 *  0.243760 *  0.626960 *   0.00000    1.000000
     14 C     c    0.200450 *  0.983690 *  0.798190 *   0.00000    1.000000
     15 C     c    0.525610 *  0.610090 *  0.406070 *   0.00000    1.000000
     16 C     c    0.992470 *  0.938320 *  0.123240 *   0.00000    1.000000
     17 C     c    0.135880 *  0.821100 *  0.858570 *   0.00000    1.000000
     18 C     c    0.350220 *  0.691580 *  0.663390 *   0.00000    1.000000
     19 C     c    0.728020 *  0.393770 *  0.675930 *   0.00000    1.000000
     20 C     c    0.051750 *  0.258060 *  0.270690 *   0.00000    1.000000
     21 C     c    0.939280 *  0.172140 *  0.420400 *   0.00000    1.000000
     22 C     c    0.845570 *  0.617890 *  0.411900 *   0.00000    1.000000
     23 C     c    0.482400 *  0.819830 *  0.690690 *   0.00000    1.000000
     24 C     c    0.797560 *  0.295750 *  0.325840 *   0.00000    1.000000
     25 C     c    0.677340 *  0.167790 *  0.014050 *   0.00000    1.000000
     26 C     c    0.523900 *  0.606240 *  0.087510 *   0.00000    1.000000
     27 C     c    0.599640 *  0.290260 *  0.563680 *   0.00000    1.000000
     28 C     c    0.638570 *  0.994870 *  0.114160 *   0.00000    1.000000
     29 C     c    0.484560 *  0.917630 *  0.250510 *   0.00000    1.000000
     30 C     c    0.341130 *  0.058080 *  0.920080 *   0.00000    1.000000
     31 C     c    0.822760 *  0.125480 *  0.880680 *   0.00000    1.000000
     32 C     c    0.872810 *  0.769570 *  0.837190 *   0.00000    1.000000
     33 C     c    0.305540 *  0.398740 *  0.572930 *   0.00000    1.000000
     34 C     c    0.230680 *  0.687950 *  0.123890 *   0.00000    1.000000
     35 C     c    0.070520 *  0.507420 *  0.779000 *   0.00000    1.000000
     36 C     c    0.325640 *  0.101530 *  0.507960 *   0.00000    1.000000
     37 C     c    0.124340 *  0.742190 *  0.424770 *   0.00000    1.000000
     38 C     c    0.544240 *  0.316930 *  0.952810 *   0.00000    1.000000
     39 C     c    0.071210 *  0.129840 *  0.116210 *   0.00000    1.000000
     40 C     c    0.777140 *  0.947480 *  0.798620 *   0.00000    1.000000
     41 C     c    0.393430 *  0.560770 *  0.532950 *   0.00000    1.000000
     42 C     c    0.068840 *  0.897290 *  0.499230 *   0.00000    1.000000
     43 C     c    0.998870 *  0.418660 *  0.951820 *   0.00000    1.000000
     44 C     c    0.242400 *  0.501470 *  0.156720 *   0.00000    1.000000
     45 C     c    0.196400 *  0.671240 *  0.768010 *   0.00000    1.000000
     46 C     c    0.894750 *  0.515410 *  0.076750 *   0.00000    1.000000
     47 C     c    0.803960 *  0.864270 *  0.153900 *   0.00000    1.000000
     48 C     c    0.992850 *  0.225490 *  0.957660 *   0.00000    1.000000
     49 C     c    0.778720 *  0.807280 *  0.348180 *   0.00000    1.000000
     50 C     c    0.826570 *  0.700170 *  0.023480 *   0.00000    1.000000
     51 C     c    0.158050 *  0.042710 *  0.608050 *   0.00000    1.000000
     52 C     c    0.478350 *  0.262460 *  0.271000 *   0.00000    1.000000
     53 C     c    0.437640 *  0.400470 *  0.120260 *   0.00000    1.000000
     54 C     c    0.369700 *  0.086430 *  0.295190 *   0.00000    1.000000
     55 C     c    0.625510 *  0.266600 *  0.386580 *   0.00000    1.000000
     56 C     c    0.422940 *  0.213290 *  0.828330 *   0.00000    1.000000
     57 C     c    0.640190 *  0.460720 *  0.845460 *   0.00000    1.000000
     58 C     c    0.740160 *  0.970420 *  0.603130 *   0.00000    1.000000
     59 C     c    0.102600 *  0.802420 *  0.044360 *   0.00000    1.000000
     60 C     c    0.620700 *  0.536360 *  0.253640 *   0.00000    1.000000
     61 C     c    0.577090 *  0.810840 *  0.389700 *   0.00000    1.000000
     62 C     c    0.024500 *  0.213260 *  0.606430 *   0.00000    1.000000
     63 C     c    0.644240 *  0.644020 *  0.931870 *   0.00000    1.000000
     64 C     c    0.594220 *  0.827740 *  0.852400 *   0.00000    1.000000

*  General input information                                                   *

  Species output for all configurations :

  Species    Type    Atomic    Atomic    Charge       Radii (Angs)     Library
                     Number     Mass       (e)     Cova   Ionic  VDW   Symbol
    C        Core        6      12.01   0.000000   0.770  0.000  1.530

  Lattice summation method               =    Ewald          (3-D)
                                         =    Parry          (2-D)
                                         =    Saunders et al (1-D)
  Accuracy factor for lattice sums       =   12.000

  Analytic derivatives to be used

  Time limit = Infinity

  Maximum range for interatomic potentials =    100000.000000 Angstroms

  Brenner et al 2002 potential to be used with explicit splines for P

*  Output for configuration   1                                                *

  Components of energy :

  Interatomic potentials     =           0.00000000 eV
  Brenner potentials         =        -428.01528162 eV
  Monopole - monopole (real) =           0.00000000 eV
  Monopole - monopole (recip)=           0.00000000 eV
  Monopole - monopole (total)=           0.00000000 eV
  Total lattice energy       =        -428.01528162 eV
  Total lattice energy       =          -41296.9319 kJ/(mole unit cells)

  Equations of motion will be integrated using the leapfrog Verlet algorithm.

*  Molecular Dynamics                                                          *

  Canonical ensemble (NVT) to be used

  Friction for temperature bath =           0.100000
  No. of mobile ions        =                 64

  No. of degrees of freedom =                189

  Time step                 =           0.000100 ps
  Equilibration time        =           5.000000 ps
  Production time           =           0.000000 ps
  Scaling time              =           5.000000 ps
  Scaling frequency         =           0.000100 ps
  Sampling frequency        =           0.005000 ps
  Write frequency           =           0.002000 ps
  TD-Force start time       =           0.000000 ps
  TD-Field start time       =           0.000000 ps

  Molecular dynamics equilibration :

  ** Time :            0.00500 ps :
     Properties:                   Instantaneous       Averaged
       Kinetic energy    (eV) =       0.403530          0.403530
       Potential energy  (eV) =    -427.749825       -427.749825
       Total energy      (eV) =    -427.346295       -427.346295
       Temperature       (K)  =      49.553097         49.553097
       Pressure         (GPa) =       0.083560          0.083560
  ** Time :            0.01000 ps :
     Properties:                   Instantaneous       Averaged
       Kinetic energy    (eV) =       0.406792          0.405161
       Potential energy  (eV) =    -427.544608       -427.647217
       Total energy      (eV) =    -427.137816       -427.242056
       Temperature       (K)  =      49.953634         49.753366
       Pressure         (GPa) =      -0.440735         -0.178588
  ** Time :            0.01500 ps :
     Properties:                   Instantaneous       Averaged
       Kinetic energy    (eV) =       0.405856          0.405393
       Potential energy  (eV) =    -427.472245       -427.588893
       Total energy      (eV) =    -427.066388       -427.183500
       Temperature       (K)  =      49.838765         49.781832
       Pressure         (GPa) =      -0.789738         -0.382304
  ** Time :            0.02000 ps :
     Properties:                   Instantaneous       Averaged
       Kinetic energy    (eV) =       0.407340          0.405880
       Potential energy  (eV) =    -427.390695       -427.539343
       Total energy      (eV) =    -426.983355       -427.133464
       Temperature       (K)  =      50.020959         49.841614
       Pressure         (GPa) =      -0.936124         -0.520759
  ** Time :            0.02500 ps :
     Properties:                   Instantaneous       Averaged
       Kinetic energy    (eV) =       0.409926          0.406689
       Potential energy  (eV) =    -427.416800       -427.514835
       Total energy      (eV) =    -427.006874       -427.108146
       Temperature       (K)  =      50.338551         49.941001
       Pressure         (GPa) =      -0.239586         -0.464525
  ** Time :            0.03000 ps :
     Properties:                   Instantaneous       Averaged
       Kinetic energy    (eV) =       0.410790          0.407372
       Potential energy  (eV) =    -427.731134       -427.550885
       Total energy      (eV) =    -427.320344       -427.143512
       Temperature       (K)  =      50.444546         50.024925
       Pressure         (GPa) =      -0.000516         -0.387190
  ** Time :            0.03500 ps :
     Properties:                   Instantaneous       Averaged
       Kinetic energy    (eV) =       0.408796          0.407576
       Potential energy  (eV) =    -428.023735       -427.618435
       Total energy      (eV) =    -427.614939       -427.210859
       Temperature       (K)  =      50.199710         50.049895
       Pressure         (GPa) =       0.638366         -0.240682
  ** Time :            0.04000 ps :
     Properties:                   Instantaneous       Averaged
[...]
  ** Time :            4.81500 ps :
     Properties:                   Instantaneous       Averaged
       Kinetic energy    (eV) =       0.406955          0.407139
       Potential energy  (eV) =    -427.944367       -428.043965
       Total energy      (eV) =    -427.537413       -427.636827
       Temperature       (K)  =      49.973627         49.996226
       Pressure         (GPa) =       0.251256          0.634850
  ** Time :            4.82000 ps :
     Properties:                   Instantaneous       Averaged
       Kinetic energy    (eV) =       0.407226          0.407139
       Potential energy  (eV) =    -427.990629       -428.043910
       Total energy      (eV) =    -427.583403       -427.636771
       Temperature       (K)  =      50.006998         49.996237
       Pressure         (GPa) =       0.906495          0.635132
  ** Time :            4.82500 ps :
     Properties:                   Instantaneous       Averaged
       Kinetic energy    (eV) =       0.407544          0.407139
       Potential energy  (eV) =    -428.020253       -428.043885
       Total energy      (eV) =    -427.612709       -427.636746
       Temperature       (K)  =      50.045951         49.996289
       Pressure         (GPa) =       0.827791          0.635332
  ** Time :            4.83000 ps :
     Properties:                   Instantaneous       Averaged
       Kinetic energy    (eV) =       0.407049          0.407139
       Potential energy  (eV) =    -428.054122       -428.043896
       Total energy      (eV) =    -427.647073       -427.636757
       Temperature       (K)  =      49.985202         49.996277
       Pressure         (GPa) =       0.265767          0.634949
  ** Time :            4.83500 ps :
     Properties:                   Instantaneous       Averaged
       Kinetic energy    (eV) =       0.407590          0.407140
       Potential energy  (eV) =    -428.041852       -428.043894
       Total energy      (eV) =    -427.634263       -427.636754
       Temperature       (K)  =      50.051597         49.996335
       Pressure         (GPa) =       0.585509          0.634898
  ** Time :            4.84000 ps :
     Properties:                   Instantaneous       Averaged
       Kinetic energy    (eV) =       0.407263          0.407140
       Potential energy  (eV) =    -428.084049       -428.043935
       Total energy      (eV) =    -427.676786       -427.636796
       Temperature       (K)  =      50.011545         49.996350
       Pressure         (GPa) =      -0.137432          0.634100
  ** Time :            4.84500 ps :
     Properties:                   Instantaneous       Averaged
       Kinetic energy    (eV) =       0.406828          0.407139
       Potential energy  (eV) =    -428.064518       -428.043957
       Total energy      (eV) =    -427.657689       -427.636817
       Temperature       (K)  =      49.958117         49.996311
       Pressure         (GPa) =       0.444433          0.633904
  ** Time :            4.85000 ps :
     Properties:                   Instantaneous       Averaged
       Kinetic energy    (eV) =       0.407193          0.407139
       Potential energy  (eV) =    -428.045816       -428.043959
       Total energy      (eV) =    -427.638623       -427.636819
       Temperature       (K)  =      50.002839         49.996318
       Pressure         (GPa) =       0.361391          0.633623
  ** Time :            4.85500 ps :
     Properties:                   Instantaneous       Averaged
       Kinetic energy    (eV) =       0.406945          0.407139
       Potential energy  (eV) =    -428.076972       -428.043993
       Total energy      (eV) =    -427.670027       -427.636853
       Temperature       (K)  =      49.972479         49.996293
       Pressure         (GPa) =       1.193014          0.634199
  ** Time :            4.86000 ps :
     Properties:                   Instantaneous       Averaged
       Kinetic energy    (eV) =       0.406422          0.407138
       Potential energy  (eV) =    -428.048003       -428.043997
       Total energy      (eV) =    -427.641581       -427.636858
       Temperature       (K)  =      49.908215         49.996202
       Pressure         (GPa) =       1.154440          0.634735
  ** Time :            4.86500 ps :
     Properties:                   Instantaneous       Averaged
       Kinetic energy    (eV) =       0.407533          0.407139
       Potential energy  (eV) =    -428.036389       -428.043989
       Total energy      (eV) =    -427.628856       -427.636850
       Temperature       (K)  =      50.044701         49.996252
       Pressure         (GPa) =       1.115132          0.635228
  ** Time :            4.87000 ps :
     Properties:                   Instantaneous       Averaged
       Kinetic energy    (eV) =       0.407204          0.407139
       Potential energy  (eV) =    -428.058705       -428.044004
       Total energy      (eV) =    -427.651501       -427.636865
       Temperature       (K)  =      50.004278         49.996260
       Pressure         (GPa) =       0.821748          0.635420
  ** Time :            4.87500 ps :
     Properties:                   Instantaneous       Averaged
       Kinetic energy    (eV) =       0.407532          0.407139
       Potential energy  (eV) =    -428.034722       -428.043995
       Total energy      (eV) =    -427.627190       -427.636855
       Temperature       (K)  =      50.044524         49.996310
       Pressure         (GPa) =       0.866019          0.635656
  ** Time :            4.88000 ps :
     Properties:                   Instantaneous       Averaged
       Kinetic energy    (eV) =       0.407511          0.407140
       Potential energy  (eV) =    -428.096775       -428.044049
       Total energy      (eV) =    -427.689263       -427.636909
       Temperature       (K)  =      50.041993         49.996357
       Pressure         (GPa) =       0.573193          0.635592
  ** Time :            4.88500 ps :
     Properties:                   Instantaneous       Averaged
       Kinetic energy    (eV) =       0.405894          0.407138
       Potential energy  (eV) =    -428.034470       -428.044039
       Total energy      (eV) =    -427.628576       -427.636900
       Temperature       (K)  =      49.843421         49.996200
       Pressure         (GPa) =       0.103360          0.635048
  ** Time :            4.89000 ps :
     Properties:                   Instantaneous       Averaged
       Kinetic energy    (eV) =       0.407327          0.407139
       Potential energy  (eV) =    -427.973543       -428.043967
       Total energy      (eV) =    -427.566216       -427.636828
       Temperature       (K)  =      50.019338         49.996224
       Pressure         (GPa) =       0.707245          0.635121
  ** Time :            4.89500 ps :
     Properties:                   Instantaneous       Averaged
       Kinetic energy    (eV) =       0.407102          0.407139
       Potential energy  (eV) =    -427.976005       -428.043897
       Total energy      (eV) =    -427.568903       -427.636759
       Temperature       (K)  =      49.991661         49.996219
       Pressure         (GPa) =       0.674708          0.635162
  ** Time :            4.90000 ps :
     Properties:                   Instantaneous       Averaged
       Kinetic energy    (eV) =       0.407929          0.407139
       Potential energy  (eV) =    -428.064662       -428.043918
       Total energy      (eV) =    -427.656733       -427.636779
       Temperature       (K)  =      50.093306         49.996318
       Pressure         (GPa) =       0.809540          0.635340
  ** Time :            4.90500 ps :
     Properties:                   Instantaneous       Averaged
       Kinetic energy    (eV) =       0.406726          0.407139
       Potential energy  (eV) =    -428.095804       -428.043971
       Total energy      (eV) =    -427.689079       -427.636832
       Temperature       (K)  =      49.945497         49.996266
       Pressure         (GPa) =       0.725461          0.635432
  ** Time :            4.91000 ps :
     Properties:                   Instantaneous       Averaged
       Kinetic energy    (eV) =       0.406905          0.407139
       Potential energy  (eV) =    -428.031591       -428.043959
       Total energy      (eV) =    -427.624687       -427.636820
       Temperature       (K)  =      49.967512         49.996237
       Pressure         (GPa) =       0.352725          0.635144
  ** Time :            4.91500 ps :
     Properties:                   Instantaneous       Averaged
       Kinetic energy    (eV) =       0.407519          0.407139
       Potential energy  (eV) =    -428.028395       -428.043943
       Total energy      (eV) =    -427.620875       -427.636804
       Temperature       (K)  =      50.042979         49.996285
       Pressure         (GPa) =       1.647788          0.636174
  ** Time :            4.92000 ps :
     Properties:                   Instantaneous       Averaged
       Kinetic energy    (eV) =       0.407621          0.407140
       Potential energy  (eV) =    -428.080092       -428.043980
       Total energy      (eV) =    -427.672470       -427.636840
       Temperature       (K)  =      50.055498         49.996345
       Pressure         (GPa) =       0.853038          0.636394
  ** Time :            4.92500 ps :
     Properties:                   Instantaneous       Averaged
       Kinetic energy    (eV) =       0.406959          0.407139
       Potential energy  (eV) =    -428.097278       -428.044034
       Total energy      (eV) =    -427.690318       -427.636894
       Temperature       (K)  =      49.974193         49.996322
       Pressure         (GPa) =       0.726356          0.636486
  ** Time :            4.93000 ps :
     Properties:                   Instantaneous       Averaged
       Kinetic energy    (eV) =       0.406936          0.407139
       Potential energy  (eV) =    -428.068961       -428.044059
       Total energy      (eV) =    -427.662025       -427.636920
       Temperature       (K)  =      49.971351         49.996297
       Pressure         (GPa) =       0.226760          0.636070
  ** Time :            4.93500 ps :
     Properties:                   Instantaneous       Averaged
       Kinetic energy    (eV) =       0.406729          0.407139
       Potential energy  (eV) =    -428.067946       -428.044083
       Total energy      (eV) =    -427.661216       -427.636944
       Temperature       (K)  =      49.945974         49.996246
       Pressure         (GPa) =       0.578583          0.636012
  ** Time :            4.94000 ps :
     Properties:                   Instantaneous       Averaged
       Kinetic energy    (eV) =       0.406576          0.407138
       Potential energy  (eV) =    -428.035227       -428.044074
       Total energy      (eV) =    -427.628651       -427.636936
       Temperature       (K)  =      49.927187         49.996176
       Pressure         (GPa) =       0.191188          0.635562
  ** Time :            4.94500 ps :
     Properties:                   Instantaneous       Averaged
       Kinetic energy    (eV) =       0.407690          0.407139
       Potential energy  (eV) =    -428.046068       -428.044076
       Total energy      (eV) =    -427.638378       -427.636937
       Temperature       (K)  =      50.063972         49.996245
       Pressure         (GPa) =       0.325841          0.635249
  ** Time :            4.95000 ps :
     Properties:                   Instantaneous       Averaged
       Kinetic energy    (eV) =       0.406670          0.407138
       Potential energy  (eV) =    -428.060763       -428.044093
       Total energy      (eV) =    -427.654093       -427.636955
       Temperature       (K)  =      49.938675         49.996187
       Pressure         (GPa) =      -0.115194          0.634491
  ** Time :            4.95500 ps :
     Properties:                   Instantaneous       Averaged
       Kinetic energy    (eV) =       0.406725          0.407138
       Potential energy  (eV) =    -427.957644       -428.044006
       Total energy      (eV) =    -427.550919       -427.636868
       Temperature       (K)  =      49.945420         49.996135
       Pressure         (GPa) =       0.793972          0.634651
  ** Time :            4.96000 ps :
     Properties:                   Instantaneous       Averaged
       Kinetic energy    (eV) =       0.407698          0.407139
       Potential energy  (eV) =    -427.961653       -428.043923
       Total energy      (eV) =    -427.553955       -427.636784
       Temperature       (K)  =      50.064890         49.996205
       Pressure         (GPa) =       0.811048          0.634829
  ** Time :            4.96500 ps :
     Properties:                   Instantaneous       Averaged
       Kinetic energy    (eV) =       0.407622          0.407139
       Potential energy  (eV) =    -428.028934       -428.043908
       Total energy      (eV) =    -427.621312       -427.636769
       Temperature       (K)  =      50.055574         49.996264
       Pressure         (GPa) =       0.550515          0.634744
  ** Time :            4.97000 ps :
     Properties:                   Instantaneous       Averaged
       Kinetic energy    (eV) =       0.407325          0.407139
       Potential energy  (eV) =    -428.056075       -428.043920
       Total energy      (eV) =    -427.648751       -427.636781
       Temperature       (K)  =      50.019046         49.996287
       Pressure         (GPa) =       1.124263          0.635237
  ** Time :            4.97500 ps :
     Properties:                   Instantaneous       Averaged
       Kinetic energy    (eV) =       0.407360          0.407139
       Potential energy  (eV) =    -428.110778       -428.043987
       Total energy      (eV) =    -427.703418       -427.636848
       Temperature       (K)  =      50.023380         49.996315
       Pressure         (GPa) =       0.905471          0.635508
  ** Time :            4.98000 ps :
     Properties:                   Instantaneous       Averaged
       Kinetic energy    (eV) =       0.406738          0.407139
       Potential energy  (eV) =    -428.114028       -428.044058
       Total energy      (eV) =    -427.707291       -427.636919
       Temperature       (K)  =      49.946967         49.996265
       Pressure         (GPa) =       1.055760          0.635930
  ** Time :            4.98500 ps :
     Properties:                   Instantaneous       Averaged
       Kinetic energy    (eV) =       0.406453          0.407138
       Potential energy  (eV) =    -428.037950       -428.044051
       Total energy      (eV) =    -427.631497       -427.636913
       Temperature       (K)  =      49.912026         49.996181
       Pressure         (GPa) =       1.082559          0.636378
  ** Time :            4.99000 ps :
     Properties:                   Instantaneous       Averaged
       Kinetic energy    (eV) =       0.407836          0.407139
       Potential energy  (eV) =    -428.024355       -428.044032
       Total energy      (eV) =    -427.616519       -427.636893
       Temperature       (K)  =      50.081900         49.996267
       Pressure         (GPa) =       0.395003          0.636136
  ** Time :            4.99500 ps :
     Properties:                   Instantaneous       Averaged
       Kinetic energy    (eV) =       0.407206          0.407139
       Potential energy  (eV) =    -428.071572       -428.044059
       Total energy      (eV) =    -427.664366       -427.636920
       Temperature       (K)  =      50.004511         49.996275
       Pressure         (GPa) =       0.867091          0.636368
  ** Time :            5.00000 ps :
     Properties:                   Instantaneous       Averaged
       Kinetic energy    (eV) =       0.407004          0.407139
       Potential energy  (eV) =    -428.061765       -428.044077
       Total energy      (eV) =    -427.654761       -427.636938
       Temperature       (K)  =      49.979662         49.996258
       Pressure         (GPa) =      -0.153488          0.635578

  Timing analysis for GULP :

  Task / Subroutine                                          Time (Seconds)
  Calculation of Brenner energy and derivatives                 175.0914
  Calculation of matrix inversion                                 0.0859
  Molecular dynamics - update of geometry                         0.5734
  Molecular dynamics - predictor                                  0.0589
  Molecular dynamics - corrector                                  0.5568
  Molecular dynamics - velocity correction                        0.3393

  CIF file written as dm.cif

  Job Finished at 23:34.06 10th August     2020