  Job Started  at 16:16.14 12th August     2020

  Number of CPUs =     1

  Total number of configurations input =      1

*  Input for Configuration =   1                                               *

  Formula = C64

  Number of irreducible atoms/shells =      64

  Total number atoms/shells =      64

  Dimensionality = 3               :  Bulk

  Cartesian lattice vectors (Angstroms) :

        7.090300    0.000000    0.000000
        0.000000    7.090300    0.000000
        0.000000    0.000000    7.090300

  Cell parameters (Angstroms/Degrees):

  a =       7.0903    alpha =  90.0000
  b =       7.0903    beta  =  90.0000
  c =       7.0903    gamma =  90.0000

  Initial cell volume =         356.446072 Angs**3

  Temperature of configuration =   0.00     K

  Pressure of configuration =         0.000 GPa

  Fractional coordinates of asymmetric unit :

   No.  Atomic       x           y          z         Charge      Occupancy
        Label      (Frac)      (Frac)     (Frac)        (e)         (Frac)
      1 C     c    0.027883    0.588410    0.365133     0.00000    1.000000
      2 C     c    0.252570 *  0.018109 *  0.113535 *   0.00000    1.000000
      3 C     c    0.111124 *  0.473478 *  0.264911 *   0.00000    1.000000
      4 C     c    0.895590 *  0.937943 *  0.435496 *   0.00000    1.000000
      5 C     c    0.515225 *  0.919496 *  0.996643 *   0.00000    1.000000
      6 C     c    0.829457 *  0.486199 *  0.219892 *   0.00000    1.000000
      7 C     c    0.947393 *  0.600736 *  0.703158 *   0.00000    1.000000
      8 C     c    0.835889 *  0.489768 *  0.543729 *   0.00000    1.000000
      9 C     c    0.125101 *  0.365570 *  0.646658 *   0.00000    1.000000
     10 C     c    0.443902 *  0.781970 *  0.118528 *   0.00000    1.000000
     11 C     c    0.861557 *  0.240385 *  0.722113 *   0.00000    1.000000
     12 C     c    0.573488 *  0.913135 *  0.555632 *   0.00000    1.000000
     13 C     c    0.382410 *  0.244926 *  0.621850 *   0.00000    1.000000
     14 C     c    0.249143 *  0.892318 *  0.781744 *   0.00000    1.000000
     15 C     c    0.578523 *  0.627505 *  0.387318 *   0.00000    1.000000
     16 C     c    0.971440 *  0.957308 *  0.086484 *   0.00000    1.000000
     17 C     c    0.177581 *  0.740998 *  0.855831 *   0.00000    1.000000
     18 C     c    0.347588 *  0.682566 *  0.627294 *   0.00000    1.000000
     19 C     c    0.718869 *  0.346981 *  0.651284 *   0.00000    1.000000
     20 C     c    0.078177 *  0.258268 *  0.294459 *   0.00000    1.000000
     21 C     c    0.922613 *  0.131983 *  0.400434 *   0.00000    1.000000
     22 C     c    0.868271 *  0.596223 *  0.394229 *   0.00000    1.000000
     23 C     c    0.566549 *  0.772943 *  0.671086 *   0.00000    1.000000
     24 C     c    0.799966 *  0.300678 *  0.338053 *   0.00000    1.000000
     25 C     c    0.715583 *  0.193264 *  0.043369 *   0.00000    1.000000
     26 C     c    0.481997 *  0.585067 *  0.080984 *   0.00000    1.000000
     27 C     c    0.574447 *  0.256886 *  0.610214 *   0.00000    1.000000
     28 C     c    0.659859 *  0.994908 *  0.057713 *   0.00000    1.000000
     29 C     c    0.559074 *  0.979126 *  0.259636 *   0.00000    1.000000
     30 C     c    0.354809 *  0.963499 *  0.925913 *   0.00000    1.000000
     31 C     c    0.854449 *  0.132449 *  0.865069 *   0.00000    1.000000
     32 C     c    0.927069 *  0.731464 *  0.812462 *   0.00000    1.000000
     33 C     c    0.291638 *  0.397501 *  0.554137 *   0.00000    1.000000
     34 C     c    0.280849 *  0.749023 *  0.181572 *   0.00000    1.000000
     35 C     c    0.121165 *  0.478809 *  0.803436 *   0.00000    1.000000
     36 C     c    0.296250 *  0.080222 *  0.502517 *   0.00000    1.000000
     37 C     c    0.221810 *  0.723256 *  0.440743 *   0.00000    1.000000
     38 C     c    0.525718 *  0.347461 *  0.957449 *   0.00000    1.000000
     39 C     c    0.047530 *  0.135904 *  0.115863 *   0.00000    1.000000
     40 C     c    0.819909 *  0.943119 *  0.812378 *   0.00000    1.000000
     41 C     c    0.417232 *  0.555068 *  0.521233 *   0.00000    1.000000
     42 C     c    0.082253 *  0.893996 *  0.476101 *   0.00000    1.000000
     43 C     c    0.061648 *  0.426498 *  0.960171 *   0.00000    1.000000
     44 C     c    0.202798 *  0.540993 *  0.116243 *   0.00000    1.000000
     45 C     c    0.277252 *  0.551035 *  0.836199 *   0.00000    1.000000
     46 C     c    0.906887 *  0.524999 *  0.026134 *   0.00000    1.000000
     47 C     c    0.818315 *  0.854012 *  0.061041 *   0.00000    1.000000
     48 C     c    0.053862 *  0.230004 *  0.934911 *   0.00000    1.000000
     49 C     c    0.801842 *  0.831559 *  0.309789 *   0.00000    1.000000
     50 C     c    0.794959 *  0.659366 *  0.986869 *   0.00000    1.000000
     51 C     c    0.155692 *  0.047967 *  0.612160 *   0.00000    1.000000
     52 C     c    0.418769 *  0.279551 *  0.238128 *   0.00000    1.000000
     53 C     c    0.365246 *  0.431435 *  0.064990 *   0.00000    1.000000
     54 C     c    0.337165 *  0.094270 *  0.297519 *   0.00000    1.000000
     55 C     c    0.570977 *  0.212346 *  0.404454 *   0.00000    1.000000
     56 C     c    0.398361 *  0.179005 *  0.824098 *   0.00000    1.000000
     57 C     c    0.643414 *  0.448980 *  0.826792 *   0.00000    1.000000
     58 C     c    0.781053 *  0.927831 *  0.602302 *   0.00000    1.000000
     59 C     c    0.143224 *  0.822405 *  0.057205 *   0.00000    1.000000
     60 C     c    0.628676 *  0.536268 *  0.265687 *   0.00000    1.000000
     61 C     c    0.585194 *  0.821263 *  0.380745 *   0.00000    1.000000
     62 C     c    0.005867 *  0.168850 *  0.607111 *   0.00000    1.000000
     63 C     c    0.643894 *  0.628196 *  0.914080 *   0.00000    1.000000
     64 C     c    0.623175 *  0.836438 *  0.833322 *   0.00000    1.000000

  Constraints :

  Constraint no.      Unconstrained     Constrained    Coefficient    Offset
                         Variable         Variable
           1              Strain 1        Strain 2       1.00000      0.0000
           2              Strain 1        Strain 3       1.00000      0.0000

*  General input information                                                   *

  Species output for all configurations :

  Species    Type    Atomic    Atomic    Charge       Radii (Angs)     Library
                     Number     Mass       (e)     Cova   Ionic  VDW   Symbol
    C        Core        6      12.01   0.000000   0.770  0.000  1.530

  Lattice summation method               =    Ewald          (3-D)
                                         =    Parry          (2-D)
                                         =    Saunders et al (1-D)
  Accuracy factor for lattice sums       =   12.000

  Analytic derivatives to be used

  Time limit = Infinity

  Maximum range for interatomic potentials =    100000.000000 Angstroms

  Brenner et al 2002 potential to be used with explicit splines for P

*  Output for configuration   1                                                *

  Components of energy :

  Interatomic potentials     =           0.00000000 eV
  Brenner potentials         =        -284.85077998 eV
  Monopole - monopole (real) =           0.00000000 eV
  Monopole - monopole (recip)=           0.00000000 eV
  Monopole - monopole (total)=           0.00000000 eV
  Total lattice energy       =        -284.85077998 eV
  Total lattice energy       =          -27483.7459 kJ/(mole unit cells)

  Number of variables =      190

  Maximum number of calculations  =           500
  Maximum Hessian update interval =            10
  Maximum step size               =   1.000000000
  Maximum parameter tolerance     =   0.000010000
  Maximum function  tolerance     =   0.000010000
  Maximum gradient  tolerance     =   0.001000000
  Maximum gradient  component     =   0.010000000

  Maximum LM gradient tolerance   =   0.900000000
  Symmetry not applied to optimisation

  Cell parameters to be optimised using strains

  BFGS hessian update to be used

  Lower half triangular hessian to be used

  Start of bulk optimisation :

  **** Maximum number of function calls has been reached ****

  Final energy =    -284.85336645 eV
  Final Gnorm  =      11.84325257

  Components of energy :

  Interatomic potentials     =           0.00000000 eV
  Brenner potentials         =        -284.85336645 eV
  Monopole - monopole (real) =           0.00000000 eV
  Monopole - monopole (recip)=           0.00000000 eV
  Monopole - monopole (total)=           0.00000000 eV
  Total lattice energy       =        -284.85336645 eV
  Total lattice energy       =          -27483.9955 kJ/(mole unit cells)

  Final fractional coordinates of atoms :

   No.  Atomic        x           y          z          Radius
        Label       (Frac)      (Frac)     (Frac)       (Angs)
     1  C     c     0.027883    0.588410    0.365133    0.000000
     2  C     c     0.252570    0.018109    0.113535    0.000000
     3  C     c     0.111124    0.473478    0.264911    0.000000
     4  C     c     0.895590    0.937943    0.435496    0.000000
     5  C     c     0.515225    0.919496    0.996643    0.000000
     6  C     c     0.829457    0.486199    0.219892    0.000000
     7  C     c     0.947393    0.600736    0.703158    0.000000
     8  C     c     0.835888    0.489768    0.543729    0.000000
     9  C     c     0.125100    0.365570    0.646658    0.000000
    10  C     c     0.443902    0.781970    0.118528    0.000000
    11  C     c     0.861557    0.240385    0.722113    0.000000
    12  C     c     0.573488    0.913135    0.555632    0.000000
    13  C     c     0.382410    0.244926    0.621850    0.000000
    14  C     c     0.249143    0.892318    0.781744    0.000000
    15  C     c     0.578523    0.627505    0.387318    0.000000
    16  C     c     0.971440    0.957308    0.086484    0.000000
    17  C     c     0.177581    0.740998    0.855831    0.000000
    18  C     c     0.347587    0.682566    0.627294    0.000000
    19  C     c     0.718869    0.346981    0.651284    0.000000
    20  C     c     0.078177    0.258268    0.294459    0.000000
    21  C     c     0.922613    0.131983    0.400434    0.000000
    22  C     c     0.868271    0.596223    0.394229    0.000000
    23  C     c     0.566549    0.772943    0.671086    0.000000
    24  C     c     0.799966    0.300678    0.338053    0.000000
    25  C     c     0.715583    0.193264    0.043369    0.000000
    26  C     c     0.481997    0.585067    0.080984    0.000000
    27  C     c     0.574447    0.256886    0.610214    0.000000
    28  C     c     0.659859    0.994909    0.057713    0.000000
    29  C     c     0.559074    0.979126    0.259636    0.000000
    30  C     c     0.354809    0.963500    0.925913    0.000000
    31  C     c     0.854449    0.132449    0.865069    0.000000
    32  C     c     0.927069    0.731464    0.812462    0.000000
    33  C     c     0.291638    0.397501    0.554137    0.000000
    34  C     c     0.280848    0.749023    0.181572    0.000000
    35  C     c     0.121165    0.478809    0.803436    0.000000
    36  C     c     0.296250    0.080222    0.502517    0.000000
    37  C     c     0.221810    0.723256    0.440743    0.000000
    38  C     c     0.525718    0.347460    0.957449    0.000000
    39  C     c     0.047530    0.135904    0.115863    0.000000
    40  C     c     0.819909    0.943120    0.812377    0.000000
    41  C     c     0.417232    0.555068    0.521233    0.000000
    42  C     c     0.082253    0.893996    0.476101    0.000000
    43  C     c     0.061648    0.426498    0.960171    0.000000
    44  C     c     0.202798    0.540993    0.116243    0.000000
    45  C     c     0.277252    0.551035    0.836199    0.000000
    46  C     c     0.906887    0.524999    0.026134    0.000000
    47  C     c     0.818315    0.854012    0.061041    0.000000
    48  C     c     0.053862    0.230004    0.934911    0.000000
    49  C     c     0.801842    0.831559    0.309789    0.000000
    50  C     c     0.794959    0.659366    0.986869    0.000000
    51  C     c     0.155692    0.047967    0.612160    0.000000
    52  C     c     0.418769    0.279551    0.238128    0.000000
    53  C     c     0.365245    0.431434    0.064990    0.000000
    54  C     c     0.337165    0.094270    0.297519    0.000000
    55  C     c     0.570977    0.212346    0.404454    0.000000
    56  C     c     0.398361    0.179005    0.824098    0.000000
    57  C     c     0.643414    0.448980    0.826791    0.000000
    58  C     c     0.781053    0.927831    0.602302    0.000000
    59  C     c     0.143224    0.822405    0.057205    0.000000
    60  C     c     0.628676    0.536268    0.265687    0.000000
    61  C     c     0.585194    0.821263    0.380745    0.000000
    62  C     c     0.005867    0.168850    0.607111    0.000000
    63  C     c     0.643894    0.628196    0.914080    0.000000
    64  C     c     0.623175    0.836438    0.833322    0.000000

  Final Cartesian lattice vectors (Angstroms) :

        7.090306    0.000000    0.000000
        0.000000    7.090306    0.000000
        0.000000    0.000000    7.090306

  Final cell parameters and derivatives :

       a            7.090306 Angstrom     dE/de1(xx) -1568.966915 eV/strain
       b            7.090306 Angstrom     dE/de2(yy)     0.000000 eV/strain
       c            7.090306 Angstrom     dE/de3(zz)     0.000000 eV/strain
       alpha       90.000000 Degrees      dE/de4(yz)     0.000000 eV/strain
       beta        90.000000 Degrees      dE/de5(xz)     0.000000 eV/strain
       gamma       90.000000 Degrees      dE/de6(xy)     0.000000 eV/strain

  Primitive cell volume =           356.446911 Angs**3

  Density of cell =      3.580834 g/cm**3

  Non-primitive cell volume =           356.446911 Angs**3

  Final internal derivatives :

   No.  Atomic          a             b             c           Radius
        Label          (eV)          (eV)          (eV)        (eV/Angs)
      1 C     c       0.000000      0.000000      0.000000      0.000000
      2 C     c      36.214636    -30.341198     -5.983078      0.000000
      3 C     c     -13.338130    175.821165      6.789726      0.000000
      4 C     c      -1.244914    -13.000380    -24.851350      0.000000
      5 C     c      72.554071    156.900505    168.809992      0.000000
      6 C     c     485.739720    292.885063    393.600794      0.000000
      7 C     c     -60.985191    179.810965    130.186678      0.000000
      8 C     c      82.420085     23.981011   -123.518367      0.000000
      9 C     c      36.250507     31.172817     46.330676      0.000000
     10 C     c    -146.846872     24.660198    -27.701777      0.000000
     11 C     c     -28.443177    -42.464335     81.461353      0.000000
     12 C     c     -29.840521    -84.208913     62.877624      0.000000
     13 C     c      23.062120     89.011869    -11.335639      0.000000
     14 C     c      22.760266   -112.446248    137.879472      0.000000
     15 C     c     124.673236    -91.464474   -272.990816      0.000000
     16 C     c     -98.240545     20.292500     -7.512736      0.000000
     17 C     c     -33.501341   -106.142330    -93.631549      0.000000
     18 C     c      61.724633    -99.247855   -227.811830      0.000000
     19 C     c     -84.320677   -125.130073    -67.091468      0.000000
     20 C     c       8.137861    -31.415513     17.186823      0.000000
     21 C     c     -13.650208    -53.376279     -9.140277      0.000000
     22 C     c     238.633916    -16.065887   -101.711458      0.000000
     23 C     c     190.008845    152.004271    -18.398781      0.000000
     24 C     c     116.847221     58.489916    -19.419209      0.000000
     25 C     c      38.105299    -65.172031     45.214152      0.000000
     26 C     c    -143.639144   -120.369813    -32.217868      0.000000
     27 C     c      49.580543     83.149423    112.418988      0.000000
     28 C     c    -171.350544   -125.803063   -183.001687      0.000000
     29 C     c      29.803962   -112.347085    -77.916034      0.000000
     30 C     c      88.010481   -200.780842     64.591397      0.000000
     31 C     c       7.812559     50.441389   -150.385929      0.000000
     32 C     c     107.825264   -176.559228   -136.152469      0.000000
     33 C     c      -8.559238    -46.200167     41.675341      0.000000
     34 C     c     179.281297     58.863943   -128.621778      0.000000
     35 C     c     210.891046    179.874498    188.852641      0.000000
     36 C     c    -132.115920    -64.936855     85.551959      0.000000
     37 C     c      88.746296    -94.539897     49.535280      0.000000
     38 C     c     -40.964794    254.460815     92.801756      0.000000
     39 C     c     -47.753414    -22.112515    -18.121254      0.000000
     40 C     c     -13.921445    -86.166846    320.214434      0.000000
     41 C     c    -141.841705    207.032960    112.034556      0.000000
     42 C     c     -50.450890     35.365619    -12.973909      0.000000
     43 C     c      57.086111     71.095120   -149.830115      0.000000
     44 C     c      -5.332493    -22.079696     46.223646      0.000000
     45 C     c    -295.450424   -188.896041     77.196934      0.000000
     46 C     c     -35.153352    108.758990    -92.938786      0.000000
     47 C     c      86.042531    146.811207   -372.774294      0.000000
     48 C     c      30.633029     15.339346    -10.609762      0.000000
     49 C     c      60.487180    -15.611883     88.358250      0.000000
     50 C     c    -151.810445   -180.071740      1.501738      0.000000
     51 C     c      40.156369    179.960485   -145.794301      0.000000
     52 C     c     -15.140324    -25.438700      1.028466      0.000000
     53 C     c      38.364597     65.424775      3.631684      0.000000
     54 C     c     -44.649747     47.698322      5.738685      0.000000
     55 C     c    -102.002761    -23.515235     71.460075      0.000000
     56 C     c     -20.310822    -20.399983    -58.787544      0.000000
     57 C     c      -3.523551      0.508567     28.214167      0.000000
     58 C     c     -59.524940    -73.659958     19.827412      0.000000
     59 C     c      48.791520    -12.211584     29.668483      0.000000
     60 C     c      47.133821    160.996884    303.814785      0.000000
     61 C     c     -25.944936    -15.140695     37.252925      0.000000
     62 C     c      -2.148184    -72.995307     42.384952      0.000000
     63 C     c     218.825823     19.777971     51.358367      0.000000
     64 C     c     -24.223315     54.885412    -59.801360      0.000000
  Maximum abs       485.739720    292.885063    393.600794      0.000000

  Time to end of optimisation =      12.1470 seconds

  Timing analysis for GULP :

  Task / Subroutine                                          Time (Seconds)
  Calculation of Brenner energy and derivatives                  11.9787

  CIF file written as pre.cif

  Job Finished at 16:16.27 12th August     2020