  Job Started  at 23:31.04 10th August     2020

  Number of CPUs =     1

  Total number of configurations input =      1

*  Input for Configuration =   1                                               *

  Formula = C64

  Number of irreducible atoms/shells =      64

  Total number atoms/shells =      64

  Dimensionality = 3               :  Bulk

  Cartesian lattice vectors (Angstroms) :

        7.090300    0.000000    0.000000
        0.000000    7.090300    0.000000
        0.000000    0.000000    7.090300

  Cell parameters (Angstroms/Degrees):

  a =       7.0903    alpha =  90.0000
  b =       7.0903    beta  =  90.0000
  c =       7.0903    gamma =  90.0000

  Initial cell volume =         356.446072 Angs**3

  Temperature of configuration =   0.00     K

  Pressure of configuration =         0.000 GPa

  Fractional coordinates of asymmetric unit :

   No.  Atomic       x           y          z         Charge      Occupancy
        Label      (Frac)      (Frac)     (Frac)        (e)         (Frac)
      1 C     c    0.027883    0.588410    0.365133     0.00000    1.000000
      2 C     c    0.252570 *  0.018109 *  0.113535 *   0.00000    1.000000
      3 C     c    0.111124 *  0.473478 *  0.264911 *   0.00000    1.000000
      4 C     c    0.895590 *  0.937943 *  0.435496 *   0.00000    1.000000
      5 C     c    0.515225 *  0.919496 *  0.996643 *   0.00000    1.000000
      6 C     c    0.829457 *  0.486199 *  0.219892 *   0.00000    1.000000
      7 C     c    0.947393 *  0.600736 *  0.703158 *   0.00000    1.000000
      8 C     c    0.835889 *  0.489768 *  0.543729 *   0.00000    1.000000
      9 C     c    0.125101 *  0.365570 *  0.646658 *   0.00000    1.000000
     10 C     c    0.443902 *  0.781970 *  0.118528 *   0.00000    1.000000
     11 C     c    0.861557 *  0.240385 *  0.722113 *   0.00000    1.000000
     12 C     c    0.573488 *  0.913135 *  0.555632 *   0.00000    1.000000
     13 C     c    0.382410 *  0.244926 *  0.621850 *   0.00000    1.000000
     14 C     c    0.249143 *  0.892318 *  0.781744 *   0.00000    1.000000
     15 C     c    0.578523 *  0.627505 *  0.387318 *   0.00000    1.000000
     16 C     c    0.971440 *  0.957308 *  0.086484 *   0.00000    1.000000
     17 C     c    0.177581 *  0.740998 *  0.855831 *   0.00000    1.000000
     18 C     c    0.347588 *  0.682566 *  0.627294 *   0.00000    1.000000
     19 C     c    0.718869 *  0.346981 *  0.651284 *   0.00000    1.000000
     20 C     c    0.078177 *  0.258268 *  0.294459 *   0.00000    1.000000
     21 C     c    0.922613 *  0.131983 *  0.400434 *   0.00000    1.000000
     22 C     c    0.868271 *  0.596223 *  0.394229 *   0.00000    1.000000
     23 C     c    0.566549 *  0.772943 *  0.671086 *   0.00000    1.000000
     24 C     c    0.799966 *  0.300678 *  0.338053 *   0.00000    1.000000
     25 C     c    0.715583 *  0.193264 *  0.043369 *   0.00000    1.000000
     26 C     c    0.481997 *  0.585067 *  0.080984 *   0.00000    1.000000
     27 C     c    0.574447 *  0.256886 *  0.610214 *   0.00000    1.000000
     28 C     c    0.659859 *  0.994908 *  0.057713 *   0.00000    1.000000
     29 C     c    0.559074 *  0.979126 *  0.259636 *   0.00000    1.000000
     30 C     c    0.354809 *  0.963499 *  0.925913 *   0.00000    1.000000
     31 C     c    0.854449 *  0.132449 *  0.865069 *   0.00000    1.000000
     32 C     c    0.927069 *  0.731464 *  0.812462 *   0.00000    1.000000
     33 C     c    0.291638 *  0.397501 *  0.554137 *   0.00000    1.000000
     34 C     c    0.280849 *  0.749023 *  0.181572 *   0.00000    1.000000
     35 C     c    0.121165 *  0.478809 *  0.803436 *   0.00000    1.000000
     36 C     c    0.296250 *  0.080222 *  0.502517 *   0.00000    1.000000
     37 C     c    0.221810 *  0.723256 *  0.440743 *   0.00000    1.000000
     38 C     c    0.525718 *  0.347461 *  0.957449 *   0.00000    1.000000
     39 C     c    0.047530 *  0.135904 *  0.115863 *   0.00000    1.000000
     40 C     c    0.819909 *  0.943119 *  0.812378 *   0.00000    1.000000
     41 C     c    0.417232 *  0.555068 *  0.521233 *   0.00000    1.000000
     42 C     c    0.082253 *  0.893996 *  0.476101 *   0.00000    1.000000
     43 C     c    0.061648 *  0.426498 *  0.960171 *   0.00000    1.000000
     44 C     c    0.202798 *  0.540993 *  0.116243 *   0.00000    1.000000
     45 C     c    0.277252 *  0.551035 *  0.836199 *   0.00000    1.000000
     46 C     c    0.906887 *  0.524999 *  0.026134 *   0.00000    1.000000
     47 C     c    0.818315 *  0.854012 *  0.061041 *   0.00000    1.000000
     48 C     c    0.053862 *  0.230004 *  0.934911 *   0.00000    1.000000
     49 C     c    0.801842 *  0.831559 *  0.309789 *   0.00000    1.000000
     50 C     c    0.794959 *  0.659366 *  0.986869 *   0.00000    1.000000
     51 C     c    0.155692 *  0.047967 *  0.612160 *   0.00000    1.000000
     52 C     c    0.418769 *  0.279551 *  0.238128 *   0.00000    1.000000
     53 C     c    0.365246 *  0.431435 *  0.064990 *   0.00000    1.000000
     54 C     c    0.337165 *  0.094270 *  0.297519 *   0.00000    1.000000
     55 C     c    0.570977 *  0.212346 *  0.404454 *   0.00000    1.000000
     56 C     c    0.398361 *  0.179005 *  0.824098 *   0.00000    1.000000
     57 C     c    0.643414 *  0.448980 *  0.826792 *   0.00000    1.000000
     58 C     c    0.781053 *  0.927831 *  0.602302 *   0.00000    1.000000
     59 C     c    0.143224 *  0.822405 *  0.057205 *   0.00000    1.000000
     60 C     c    0.628676 *  0.536268 *  0.265687 *   0.00000    1.000000
     61 C     c    0.585194 *  0.821263 *  0.380745 *   0.00000    1.000000
     62 C     c    0.005867 *  0.168850 *  0.607111 *   0.00000    1.000000
     63 C     c    0.643894 *  0.628196 *  0.914080 *   0.00000    1.000000
     64 C     c    0.623175 *  0.836438 *  0.833322 *   0.00000    1.000000

  Constraints :

  Constraint no.      Unconstrained     Constrained    Coefficient    Offset
                         Variable         Variable
           1              Strain 1        Strain 2       1.00000      0.0000
           2              Strain 1        Strain 3       1.00000      0.0000

*  General input information                                                   *

  Species output for all configurations :

  Species    Type    Atomic    Atomic    Charge       Radii (Angs)     Library
                     Number     Mass       (e)     Cova   Ionic  VDW   Symbol
    C        Core        6      12.01   0.000000   0.770  0.000  1.530

  Lattice summation method               =    Ewald          (3-D)
                                         =    Parry          (2-D)
                                         =    Saunders et al (1-D)
  Accuracy factor for lattice sums       =   12.000

  Analytic derivatives to be used

  Time limit = Infinity

  Maximum range for interatomic potentials =    100000.000000 Angstroms

  Brenner et al 2002 potential to be used with explicit splines for P

*  Output for configuration   1                                                *

  Components of energy :

  Interatomic potentials     =           0.00000000 eV
  Brenner potentials         =        -284.85077998 eV
  Monopole - monopole (real) =           0.00000000 eV
  Monopole - monopole (recip)=           0.00000000 eV
  Monopole - monopole (total)=           0.00000000 eV
  Total lattice energy       =        -284.85077998 eV
  Total lattice energy       =          -27483.7459 kJ/(mole unit cells)

  Number of variables =      190

  Maximum number of calculations  =          2000
  Maximum Hessian update interval =            10
  Maximum step size               =   1.000000000
  Maximum parameter tolerance     =   0.000010000
  Maximum function  tolerance     =   0.000100000
  Maximum gradient  tolerance     =   0.001000000
  Maximum gradient  component     =   0.010000000

  Symmetry not applied to optimisation

  Cell parameters to be optimised using strains

  Conjugate gradient optimiser to be used

  Lower half triangular hessian to be used

  Start of bulk optimisation :

  **** Optimisation achieved ****

  Final energy =    -428.01528464 eV
  Final Gnorm  =       0.00024158

  Components of energy :

  Interatomic potentials     =           0.00000000 eV
  Brenner potentials         =        -428.01528464 eV
  Monopole - monopole (real) =           0.00000000 eV
  Monopole - monopole (recip)=           0.00000000 eV
  Monopole - monopole (total)=           0.00000000 eV
  Total lattice energy       =        -428.01528464 eV
  Total lattice energy       =          -41296.9322 kJ/(mole unit cells)

  Final fractional coordinates of atoms :

   No.  Atomic        x           y          z          Radius
        Label       (Frac)      (Frac)     (Frac)       (Angs)
     1  C     c     0.027883    0.588410    0.365133    0.000000
     2  C     c     0.268009    0.100448    0.108471    0.000000
     3  C     c     0.104335    0.438989    0.269073    0.000000
     4  C     c     0.880378    0.966841    0.452512    0.000000
     5  C     c     0.479923    0.919870    0.988004    0.000000
     6  C     c     0.790318    0.446742    0.218601    0.000000
     7  C     c     0.924768    0.638748    0.715330    0.000000
     8  C     c     0.809577    0.559801    0.587626    0.000000
     9  C     c     0.131331    0.381095    0.635900    0.000000
    10  C     c     0.408160    0.766417    0.116971    0.000000
    11  C     c     0.868590    0.256456    0.728519    0.000000
    12  C     c     0.573419    0.901732    0.557921    0.000000
    13  C     c     0.422112    0.243757    0.626960    0.000000
    14  C     c     0.200446    0.983691    0.798191    0.000000
    15  C     c     0.525613    0.610094    0.406068    0.000000
    16  C     c     0.992467    0.938318    0.123245    0.000000
    17  C     c     0.135881    0.821105    0.858571    0.000000
    18  C     c     0.350218    0.691578    0.663390    0.000000
    19  C     c     0.728018    0.393773    0.675932    0.000000
    20  C     c     0.051749    0.258061    0.270693    0.000000
    21  C     c     0.939280    0.172138    0.420399    0.000000
    22  C     c     0.845574    0.617891    0.411902    0.000000
    23  C     c     0.482399    0.819832    0.690691    0.000000
    24  C     c     0.797559    0.295753    0.325839    0.000000
    25  C     c     0.677340    0.167789    0.014049    0.000000
    26  C     c     0.523900    0.606239    0.087511    0.000000
    27  C     c     0.599640    0.290265    0.563678    0.000000
    28  C     c     0.638571    0.994873    0.114157    0.000000
    29  C     c     0.484556    0.917628    0.250506    0.000000
    30  C     c     0.341127    0.058078    0.920079    0.000000
    31  C     c     0.822759    0.125483    0.880679    0.000000
    32  C     c     0.872808    0.769566    0.837190    0.000000
    33  C     c     0.305537    0.398735    0.572927    0.000000
    34  C     c     0.230685    0.687947    0.123890    0.000000
    35  C     c     0.070519    0.507421    0.779001    0.000000
    36  C     c     0.325638    0.101533    0.507963    0.000000
    37  C     c     0.124341    0.742187    0.424774    0.000000
    38  C     c     0.544242    0.316930    0.952813    0.000000
    39  C     c     0.071208    0.129843    0.116209    0.000000
    40  C     c     0.777138    0.947479    0.798620    0.000000
    41  C     c     0.393430    0.560771    0.532953    0.000000
    42  C     c     0.068844    0.897292    0.499227    0.000000
    43  C     c     0.998874    0.418656    0.951824    0.000000
    44  C     c     0.242405    0.501465    0.156723    0.000000
    45  C     c     0.196398    0.671242    0.768014    0.000000
    46  C     c     0.894751    0.515413    0.076752    0.000000
    47  C     c     0.803957    0.864271    0.153900    0.000000
    48  C     c     0.992852    0.225494    0.957664    0.000000
    49  C     c     0.778721    0.807283    0.348179    0.000000
    50  C     c     0.826574    0.700165    0.023475    0.000000
    51  C     c     0.158047    0.042711    0.608048    0.000000
    52  C     c     0.478346    0.262461    0.271005    0.000000
    53  C     c     0.437638    0.400472    0.120259    0.000000
    54  C     c     0.369701    0.086427    0.295193    0.000000
    55  C     c     0.625508    0.266600    0.386578    0.000000
    56  C     c     0.422944    0.213294    0.828325    0.000000
    57  C     c     0.640195    0.460721    0.845460    0.000000
    58  C     c     0.740155    0.970416    0.603129    0.000000
    59  C     c     0.102597    0.802424    0.044365    0.000000
    60  C     c     0.620705    0.536363    0.253635    0.000000
    61  C     c     0.577094    0.810842    0.389702    0.000000
    62  C     c     0.024501    0.213257    0.606429    0.000000
    63  C     c     0.644241    0.644016    0.931866    0.000000
    64  C     c     0.594220    0.827741    0.852400    0.000000

  Final Cartesian lattice vectors (Angstroms) :

        7.569564    0.000000    0.000000
        0.000000    7.569564    0.000000
        0.000000    0.000000    7.569564

  Final cell parameters and derivatives :

       a            7.569564 Angstrom     dE/de1(xx)    -0.001257 eV/strain
       b            7.569564 Angstrom     dE/de2(yy)     0.000000 eV/strain
       c            7.569564 Angstrom     dE/de3(zz)     0.000000 eV/strain
       alpha       90.000000 Degrees      dE/de4(yz)     0.000000 eV/strain
       beta        90.000000 Degrees      dE/de5(xz)     0.000000 eV/strain
       gamma       90.000000 Degrees      dE/de6(xy)     0.000000 eV/strain

  Primitive cell volume =           433.723083 Angs**3

  Density of cell =      2.942839 g/cm**3

  Non-primitive cell volume =           433.723083 Angs**3

  Final internal derivatives :

   No.  Atomic          a             b             c           Radius
        Label          (eV)          (eV)          (eV)        (eV/Angs)
      1 C     c       0.000000      0.000000      0.000000      0.000000
      2 C     c       0.004307     -0.004114     -0.003171      0.000000
      3 C     c       0.001402     -0.000678      0.000037      0.000000
      4 C     c       0.002486     -0.002557     -0.001914      0.000000
      5 C     c       0.004276     -0.005183     -0.004672      0.000000
      6 C     c       0.003032     -0.004593     -0.003345      0.000000
      7 C     c       0.001219     -0.005055     -0.003048      0.000000
      8 C     c       0.001190     -0.004232     -0.000673      0.000000
      9 C     c       0.003279     -0.003638     -0.002650      0.000000
     10 C     c       0.005104     -0.004492     -0.002954      0.000000
     11 C     c       0.003412     -0.002603     -0.003389      0.000000
     12 C     c       0.002153     -0.003351     -0.000356      0.000000
     13 C     c       0.003116     -0.004396     -0.003027      0.000000
     14 C     c       0.003362     -0.005470     -0.001598      0.000000
     15 C     c       0.002372     -0.003165     -0.000953      0.000000
     16 C     c       0.002395     -0.005231     -0.002010      0.000000
     17 C     c       0.004311     -0.004274     -0.000550      0.000000
     18 C     c       0.004720     -0.004443     -0.002433      0.000000
     19 C     c       0.004492     -0.005228     -0.001885      0.000000
     20 C     c       0.003390     -0.002848     -0.001123      0.000000
     21 C     c       0.004097     -0.002993     -0.002715      0.000000
     22 C     c       0.003437     -0.000678     -0.000127      0.000000
     23 C     c       0.003740     -0.004232     -0.001724      0.000000
     24 C     c       0.001620     -0.003280     -0.001304      0.000000
     25 C     c       0.002383     -0.004258     -0.001463      0.000000
     26 C     c       0.003337     -0.005192     -0.003122      0.000000
     27 C     c       0.003469     -0.005162     -0.002697      0.000000
     28 C     c       0.002918     -0.004158     -0.003011      0.000000
     29 C     c       0.003844     -0.004542     -0.000118      0.000000
     30 C     c       0.003201     -0.002695     -0.001609      0.000000
     31 C     c       0.005859     -0.004708     -0.001794      0.000000
     32 C     c       0.002355     -0.004251     -0.003703      0.000000
     33 C     c       0.004072     -0.004580     -0.002162      0.000000
     34 C     c       0.003006     -0.002949     -0.001064      0.000000
     35 C     c       0.003787     -0.003557     -0.003030      0.000000
     36 C     c       0.003156     -0.004440     -0.001970      0.000000
     37 C     c       0.001558     -0.001998     -0.000783      0.000000
     38 C     c       0.004062     -0.003692     -0.002446      0.000000
     39 C     c       0.003959     -0.002860     -0.001076      0.000000
     40 C     c      -0.000760     -0.005889     -0.000711      0.000000
     41 C     c       0.004554     -0.004768     -0.003720      0.000000
     42 C     c       0.002333     -0.002311     -0.001292      0.000000
     43 C     c       0.002783     -0.002082     -0.000731      0.000000
     44 C     c       0.002682     -0.003516      0.001193      0.000000
     45 C     c       0.002871     -0.004853     -0.001160      0.000000
     46 C     c       0.004971     -0.004371     -0.003149      0.000000
     47 C     c       0.004625     -0.003006     -0.001106      0.000000
     48 C     c       0.002116     -0.004433     -0.004043      0.000000
     49 C     c       0.001201     -0.002385     -0.003319      0.000000
     50 C     c       0.003179     -0.004316     -0.000785      0.000000
     51 C     c       0.003278     -0.003048     -0.002532      0.000000
     52 C     c       0.003985     -0.004579     -0.001483      0.000000
     53 C     c       0.001913     -0.003567     -0.002609      0.000000
     54 C     c       0.002954     -0.003913     -0.002124      0.000000
     55 C     c       0.003290     -0.004320     -0.002765      0.000000
     56 C     c       0.003491     -0.005173     -0.000844      0.000000
     57 C     c       0.002933     -0.005364     -0.001981      0.000000
     58 C     c       0.002848     -0.003389     -0.003314      0.000000
     59 C     c       0.002925     -0.001688     -0.002961      0.000000
     60 C     c       0.004843     -0.003510     -0.001984      0.000000
     61 C     c       0.002016     -0.003795     -0.004949      0.000000
     62 C     c       0.003316     -0.003641     -0.001243      0.000000
     63 C     c       0.003389     -0.003820     -0.001835      0.000000
     64 C     c       0.007492     -0.001975     -0.004548      0.000000
  Maximum abs         0.007492      0.005889      0.004949      0.000000

  Time to end of optimisation =       2.9295 seconds

  Timing analysis for GULP :

  Task / Subroutine                                          Time (Seconds)
  Calculation of Brenner energy and derivatives                   2.8705

  CIF file written as pre.cif

  Job Finished at 23:31.07 10th August     2020