  Job Started  at 14:10.04 31st July       2020

  Number of CPUs =     1

  Total number of configurations input =      1

*  Input for Configuration =   1                                               *

  Formula = C64

  Number of irreducible atoms/shells =      64

  Total number atoms/shells =      64

  Dimensionality = 3               :  Bulk

  Cartesian lattice vectors (Angstroms) :

        7.498900    0.000000    0.000000
        0.000000    7.498900    0.000000
        0.000000    0.000000    7.498900

  Cell parameters (Angstroms/Degrees):

  a =       7.4989    alpha =  90.0000
  b =       7.4989    beta  =  90.0000
  c =       7.4989    gamma =  90.0000

  Initial cell volume =         421.689402 Angs**3

  Shrinking factors =      8     8     8

  Temperature of configuration =   0.00     K

  Pressure of configuration =         0.000 GPa

  Fractional coordinates of asymmetric unit :

   No.  Atomic       x           y          z         Charge      Occupancy
        Label      (Frac)      (Frac)     (Frac)        (e)         (Frac)
      1 C     c    0.035780    0.526170    0.339890     0.00000    1.000000
      2 C     c    0.239510    0.060540    0.072350     0.00000    1.000000
      3 C     c    0.089390    0.374440    0.242570     0.00000    1.000000
      4 C     c    0.858420    0.909360    0.415320     0.00000    1.000000
      5 C     c    0.445460    0.864550    0.949640     0.00000    1.000000
      6 C     c    0.784630    0.426760    0.212550     0.00000    1.000000
      7 C     c    0.905100    0.586690    0.682220     0.00000    1.000000
      8 C     c    0.793140    0.502230    0.552150     0.00000    1.000000
      9 C     c    0.113250    0.329730    0.605370     0.00000    1.000000
     10 C     c    0.369440    0.711790    0.088590     0.00000    1.000000
     11 C     c    0.866650    0.207610    0.711560     0.00000    1.000000
     12 C     c    0.546790    0.858330    0.511930     0.00000    1.000000
     13 C     c    0.403210    0.189750    0.589000     0.00000    1.000000
     14 C     c    0.171670    0.932880    0.771120     0.00000    1.000000
     15 C     c    0.502600    0.559760    0.366750     0.00000    1.000000
     16 C     c    0.957070    0.898000    0.083600     0.00000    1.000000
     17 C     c    0.121280    0.766980    0.840020     0.00000    1.000000
     18 C     c    0.280340    0.670610    0.570760     0.00000    1.000000
     19 C     c    0.714990    0.332880    0.641750     0.00000    1.000000
     20 C     c    0.029200    0.197810    0.239770     0.00000    1.000000
     21 C     c    0.913440    0.116840    0.388940     0.00000    1.000000
     22 C     c    0.834720    0.563030    0.362960     0.00000    1.000000
     23 C     c    0.438220    0.780350    0.639510     0.00000    1.000000
     24 C     c    0.772980    0.239690    0.283590     0.00000    1.000000
     25 C     c    0.647380    0.114310    0.982950     0.00000    1.000000
     26 C     c    0.482780    0.548900    0.046710     0.00000    1.000000
     27 C     c    0.583620    0.229340    0.524450     0.00000    1.000000
     28 C     c    0.606050    0.939270    0.077340     0.00000    1.000000
     29 C     c    0.457370    0.864030    0.213940     0.00000    1.000000
     30 C     c    0.313690    0.009220    0.887500     0.00000    1.000000
     31 C     c    0.791170    0.063870    0.850670     0.00000    1.000000
     32 C     c    0.848610    0.721500    0.798520     0.00000    1.000000
     33 C     c    0.288930    0.348760    0.540210     0.00000    1.000000
     34 C     c    0.188650    0.644010    0.156330     0.00000    1.000000
     35 C     c    0.057000    0.458460    0.747550     0.00000    1.000000
     36 C     c    0.305650    0.045550    0.475850     0.00000    1.000000
     37 C     c    0.160520    0.688730    0.378230     0.00000    1.000000
     38 C     c    0.517920    0.261380    0.912850     0.00000    1.000000
     39 C     c    0.038650    0.084050    0.073930     0.00000    1.000000
     40 C     c    0.741510    0.892230    0.759380     0.00000    1.000000
     41 C     c    0.365040    0.507170    0.479330     0.00000    1.000000
     42 C     c    0.049480    0.847730    0.461700     0.00000    1.000000
     43 C     c    0.030540    0.388510    0.937880     0.00000    1.000000
     44 C     c    0.200500    0.431070    0.076410     0.00000    1.000000
     45 C     c    0.163760    0.628960    0.728380     0.00000    1.000000
     46 C     c    0.877950    0.485220    0.044970     0.00000    1.000000
     47 C     c    0.773260    0.814010    0.111090     0.00000    1.000000
     48 C     c    0.966940    0.189580    0.915420     0.00000    1.000000
     49 C     c    0.762380    0.754700    0.307570     0.00000    1.000000
     50 C     c    0.787840    0.651720    0.978660     0.00000    1.000000
     51 C     c    0.136650    0.990120    0.577520     0.00000    1.000000
     52 C     c    0.445220    0.212600    0.229920     0.00000    1.000000
     53 C     c    0.399900    0.342090    0.069220     0.00000    1.000000
     54 C     c    0.340260    0.031390    0.262600     0.00000    1.000000
     55 C     c    0.598680    0.216370    0.341640     0.00000    1.000000
     56 C     c    0.400830    0.156460    0.788560     0.00000    1.000000
     57 C     c    0.615570    0.404770    0.806500     0.00000    1.000000
     58 C     c    0.714580    0.921200    0.564100     0.00000    1.000000
     59 C     c    0.077720    0.761070    0.023980     0.00000    1.000000
     60 C     c    0.579260    0.473430    0.214260     0.00000    1.000000
     61 C     c    0.558260    0.757290    0.349190     0.00000    1.000000
     62 C     c    0.005600    0.158030    0.569900     0.00000    1.000000
     63 C     c    0.605270    0.589680    0.891290     0.00000    1.000000
     64 C     c    0.552220    0.774430    0.806200     0.00000    1.000000

  Brillouin zone sampling points :

  Point number          x          y          z            Weight
        1           0.062500   0.062500   0.062500     0.00390625
        2           0.062500   0.062500   0.187500     0.00390625
        3           0.062500   0.062500   0.312500     0.00390625
        4           0.062500   0.062500   0.437500     0.00390625
        5           0.062500   0.062500   0.562500     0.00390625
        6           0.062500   0.062500   0.687500     0.00390625
        7           0.062500   0.062500   0.812500     0.00390625
        8           0.062500   0.062500   0.937500     0.00390625
        9           0.062500   0.187500   0.062500     0.00390625
       10           0.062500   0.187500   0.187500     0.00390625
       11           0.062500   0.187500   0.312500     0.00390625
       12           0.062500   0.187500   0.437500     0.00390625
       13           0.062500   0.187500   0.562500     0.00390625
       14           0.062500   0.187500   0.687500     0.00390625
       15           0.062500   0.187500   0.812500     0.00390625
       16           0.062500   0.187500   0.937500     0.00390625
       17           0.062500   0.312500   0.062500     0.00390625
       18           0.062500   0.312500   0.187500     0.00390625
       19           0.062500   0.312500   0.312500     0.00390625
       20           0.062500   0.312500   0.437500     0.00390625
       21           0.062500   0.312500   0.562500     0.00390625
       22           0.062500   0.312500   0.687500     0.00390625
       23           0.062500   0.312500   0.812500     0.00390625
       24           0.062500   0.312500   0.937500     0.00390625
       25           0.062500   0.437500   0.062500     0.00390625
       26           0.062500   0.437500   0.187500     0.00390625
       27           0.062500   0.437500   0.312500     0.00390625
       28           0.062500   0.437500   0.437500     0.00390625
       29           0.062500   0.437500   0.562500     0.00390625
       30           0.062500   0.437500   0.687500     0.00390625
       31           0.062500   0.437500   0.812500     0.00390625
       32           0.062500   0.437500   0.937500     0.00390625
       33           0.062500   0.562500   0.062500     0.00390625
       34           0.062500   0.562500   0.187500     0.00390625
       35           0.062500   0.562500   0.312500     0.00390625
       36           0.062500   0.562500   0.437500     0.00390625
       37           0.062500   0.562500   0.562500     0.00390625
       38           0.062500   0.562500   0.687500     0.00390625
       39           0.062500   0.562500   0.812500     0.00390625
       40           0.062500   0.562500   0.937500     0.00390625
       41           0.062500   0.687500   0.062500     0.00390625
       42           0.062500   0.687500   0.187500     0.00390625
       43           0.062500   0.687500   0.312500     0.00390625
       44           0.062500   0.687500   0.437500     0.00390625
       45           0.062500   0.687500   0.562500     0.00390625
       46           0.062500   0.687500   0.687500     0.00390625
       47           0.062500   0.687500   0.812500     0.00390625
       48           0.062500   0.687500   0.937500     0.00390625
       49           0.062500   0.812500   0.062500     0.00390625
       50           0.062500   0.812500   0.187500     0.00390625
       51           0.062500   0.812500   0.312500     0.00390625
       52           0.062500   0.812500   0.437500     0.00390625
       53           0.062500   0.812500   0.562500     0.00390625
       54           0.062500   0.812500   0.687500     0.00390625
       55           0.062500   0.812500   0.812500     0.00390625
       56           0.062500   0.812500   0.937500     0.00390625
       57           0.062500   0.937500   0.062500     0.00390625
       58           0.062500   0.937500   0.187500     0.00390625
       59           0.062500   0.937500   0.312500     0.00390625
       60           0.062500   0.937500   0.437500     0.00390625
[...]
      242           0.437500   0.812500   0.187500     0.00390625
      243           0.437500   0.812500   0.312500     0.00390625
      244           0.437500   0.812500   0.437500     0.00390625
      245           0.437500   0.812500   0.562500     0.00390625
      246           0.437500   0.812500   0.687500     0.00390625
      247           0.437500   0.812500   0.812500     0.00390625
      248           0.437500   0.812500   0.937500     0.00390625
      249           0.437500   0.937500   0.062500     0.00390625
      250           0.437500   0.937500   0.187500     0.00390625
      251           0.437500   0.937500   0.312500     0.00390625
      252           0.437500   0.937500   0.437500     0.00390625
      253           0.437500   0.937500   0.562500     0.00390625
      254           0.437500   0.937500   0.687500     0.00390625
      255           0.437500   0.937500   0.812500     0.00390625
      256           0.437500   0.937500   0.937500     0.00390625

*  General input information                                                   *

  Species output for all configurations :

  Species    Type    Atomic    Atomic    Charge       Radii (Angs)     Library
                     Number     Mass       (e)     Cova   Ionic  VDW   Symbol
    C        Core        6      12.01   0.000000   0.770  0.000  1.530

  Lattice summation method               =    Ewald          (3-D)
                                         =    Parry          (2-D)
                                         =    Saunders et al (1-D)
  Accuracy factor for lattice sums       =   12.000

  Analytic derivatives to be used

  Time limit = Infinity

  Maximum range for interatomic potentials =    100000.000000 Angstroms

  Brenner et al 2002 potential to be used with explicit splines for P

*  Output for configuration   1                                                *

  Components of energy :

  Interatomic potentials     =           0.00000000 eV
  Brenner potentials         =        -423.16029198 eV
  Monopole - monopole (real) =           0.00000000 eV
  Monopole - monopole (recip)=           0.00000000 eV
  Monopole - monopole (total)=           0.00000000 eV
  Total lattice energy       =        -423.16029198 eV
  Total lattice energy       =          -40828.4996 kJ/(mole unit cells)

  Elastic Constant Matrix: (Units=GPa)

  Indices      1         2         3         4         5         6
       1    445.4348  191.6742  237.5886    9.9456  -53.3065   27.1242
       2    191.6742  510.6140  127.7260   -1.0220   -1.0953   58.6525
       3    237.5886  127.7260  605.8733  -27.7379  -40.8451  -14.5500
       4      9.9456   -1.0220  -27.7379  136.9856    9.3678   -8.8776
       5    -53.3065   -1.0953  -40.8451    9.3678  183.6789   -1.9045
       6     27.1242   58.6525  -14.5500   -8.8776   -1.9045  150.5259

  Elastic Compliance Matrix: (Units=1/GPa)

  Indices      1         2         3         4         5         6
       1    0.003364 -0.000944 -0.001104 -0.000550  0.000750 -0.000368
       2   -0.000944  0.002451 -0.000186  0.000018 -0.000310 -0.000806
       3   -0.001104 -0.000186  0.002169  0.000542  0.000139  0.000515
       4   -0.000550  0.000018  0.000542  0.007516 -0.000416  0.000582
       5    0.000750 -0.000310  0.000139 -0.000416  0.005713  0.000047
       6   -0.000368 -0.000806  0.000515  0.000582  0.000047  0.007108

  Mechanical properties :

  Convention :                    Reuss         Voigt         Hill
  Bulk  Modulus (GPa)     =     284.32517     297.32219     290.82368
  Shear Modulus (GPa)     =     147.22546     161.23363     154.22955
  Velocity S-wave (km/s)  =       6.97426       7.29852       7.13823
  Velocity P-wave (km/s)  =      12.60116      13.00976      12.80709
  Compressibility (1/GPa) =    0.00351710
  Stress axis :                     x             y             z
  Youngs Moduli (GPa)     =     297.23464     407.95448     461.02793
  Poissons Ratio (x)      =                     0.38512       0.50887
  Poissons Ratio (y)      =       0.28060                     0.08574
  Poissons Ratio (z)      =       0.32808       0.07587

  Piezoelectric Strain Matrix: (Units=C/m**2)

  Indices      1         2         3         4         5         6
       x    -0.00000  -0.00000  -0.00000  -0.00000  -0.00000  -0.00000
       y    -0.00000  -0.00000  -0.00000  -0.00000  -0.00000  -0.00000
       z    -0.00000  -0.00000  -0.00000  -0.00000  -0.00000  -0.00000

  Piezoelectric Stress Matrix: (Units=10**-11 C/N)

  Indices      1         2         3         4         5         6
       x     0.00000   0.00000   0.00000   0.00000   0.00000   0.00000
       y     0.00000   0.00000   0.00000   0.00000   0.00000   0.00000
       z     0.00000   0.00000   0.00000   0.00000   0.00000   0.00000

  Static dielectric constant tensor :

              x         y         z
       x     1.00000   0.00000   0.00000
       y     0.00000   1.00000   0.00000
       z     0.00000   0.00000   1.00000

  Static refractive indices :

    1 =    1.00000      2 =    1.00000      3 =    1.00000

  Phonon Calculation :

  Number of k points for this configuration =      256

  K point      1 =   0.062500  0.062500  0.062500  Weight =    0.004

  Frequencies (cm-1) [NB: Negative implies an imaginary mode]:

[...]

  K point    256 =   0.437500  0.937500  0.937500  Weight =    0.004

  Frequencies (cm-1) [NB: Negative implies an imaginary mode]:

  118.71  127.70  158.35  167.64  211.05  228.34  241.73  252.79  264.93
  267.58  276.11  293.11  298.67  312.75  325.33  326.63  341.27  344.49
  357.95  365.28  375.30  382.33  389.83  398.80  406.34  412.71  419.60
  423.39  429.71  448.43  454.47  457.60  468.97  476.86  489.41  493.53
  497.81  506.57  520.12  520.80  528.81  540.75  545.34  550.72  559.17
  563.54  570.41  581.98  584.75  594.84  602.35  607.94  615.93  621.28
  628.26  637.29  640.40  655.27  661.55  670.07  675.08  682.61  687.41
  693.11  704.59  708.11  714.11  719.94  726.03  736.44  742.36  744.53
  754.78  760.68  766.06  777.28  784.23  788.74  791.66  804.42  808.30
  815.95  821.33  830.21  834.61  839.31  853.92  867.88  870.97  875.21
  882.42  897.98  904.81  918.49  921.65  931.09  938.51  942.26  953.36
  957.93  967.72  979.86  984.05  989.94 1006.55 1009.86 1026.14 1037.43
 1046.57 1050.97 1060.75 1068.02 1072.74 1081.14 1083.17 1096.34 1107.88
 1112.52 1118.17 1123.28 1128.44 1138.35 1150.67 1152.48 1158.48 1167.77
 1175.78 1180.93 1198.34 1209.88 1213.51 1219.86 1228.04 1233.64 1245.09
 1255.70 1258.63 1265.48 1267.34 1286.73 1288.66 1292.13 1304.45 1309.77
 1318.09 1323.28 1334.93 1337.38 1343.36 1352.09 1361.03 1369.71 1378.17
 1385.10 1391.76 1397.95 1411.99 1424.36 1436.04 1444.10 1460.81 1469.70
 1477.81 1483.59 1490.94 1493.23 1505.44 1529.31 1553.63 1556.83 1579.06
 1588.16 1591.62 1649.59 1669.02 1677.63 1686.40 1716.92 1729.25 1740.98
 1762.80 1816.61 1872.76 1927.03 1931.86 1959.48 2106.20 2131.26 2415.60
 2878.04 2890.12 2964.35

  Phonon properties (per mole of unit cells): Temperature =      0.000 K
  Zero point energy            =       11.739080 eV

  Time to end of properties =      79.1044 seconds

  Timing analysis for GULP :

  Task / Subroutine                                          Time (Seconds)
  Calculation of real space energy and derivatives                0.0693
  Calculation of Brenner energy and derivatives                  70.2904
  Calculation of phonons                                         78.8032
  Disk read/write operations to scratch files                     0.2016

  Job Finished at 14:11.23 31st July       2020