  Job Started  at 10:16.24 22nd April      2021

  Number of CPUs =    12

  Host name      = p1

  Total number of configurations input =      1

*  Input for Configuration =   1                                               *

  Formula = C512

  Number of irreducible atoms/shells =     512

  Total number atoms/shells =     512

  Dimensionality = 3               :  Bulk

  Cartesian lattice vectors (Angstroms) :

       15.387665    0.000000    0.000000
        0.000000   15.387665    0.000000
        0.000000    0.000000   15.387665

  Cell parameters (Angstroms/Degrees):

  a =      15.3877    alpha =  90.0000
  b =      15.3877    beta  =  90.0000
  c =      15.3877    gamma =  90.0000

  Initial cell volume =        3643.494922 Angs**3

  Shrinking factors =      4     4     4

  Temperature of configuration =  0.000     K

  Pressure of configuration =         0.000 GPa

  Fractional coordinates of asymmetric unit :

   No.  Atomic       x           y          z         Charge      Occupancy
        Label      (Frac)      (Frac)     (Frac)        (e)         (Frac)
      1 C     c    0.500983    0.386436    0.641831     0.00000    1.000000
      2 C     c    0.994583    0.462421    0.673531     0.00000    1.000000
      3 C     c    0.828948    0.888662    0.623811     0.00000    1.000000
      4 C     c    0.497620    0.540893    0.187789     0.00000    1.000000
      5 C     c    0.010590    0.028619    0.580908     0.00000    1.000000
      6 C     c    0.640034    0.331059    0.681067     0.00000    1.000000
      7 C     c    0.039921    0.083555    0.138590     0.00000    1.000000
      8 C     c    0.608369    0.335049    0.428019     0.00000    1.000000
      9 C     c    0.316999    0.311057    0.558101     0.00000    1.000000
     10 C     c    0.775201    0.542950    0.295187     0.00000    1.000000
     11 C     c    0.089456    0.198336    0.007857     0.00000    1.000000
     12 C     c    0.069036    0.028311    0.505219     0.00000    1.000000
     13 C     c    0.801877    0.253203    0.490229     0.00000    1.000000
     14 C     c    0.154367    0.125904    0.245122     0.00000    1.000000
     15 C     c    0.261950    0.677741    0.372098     0.00000    1.000000
     16 C     c    0.400840    0.177019    0.701621     0.00000    1.000000
     17 C     c    0.684040    0.477693    0.889151     0.00000    1.000000
     18 C     c    0.803348    0.142321    0.804918     0.00000    1.000000
     19 C     c    0.162773    0.191909    0.946539     0.00000    1.000000
     20 C     c    0.621542    0.494882    0.040730     0.00000    1.000000
     21 C     c    0.626740    0.817548    0.640570     0.00000    1.000000
     22 C     c    0.275976    0.750168    0.159774     0.00000    1.000000
     23 C     c    0.717538    0.711622    0.577999     0.00000    1.000000
     24 C     c    0.754250    0.817272    0.129982     0.00000    1.000000
     25 C     c    0.621899    0.915721    0.320561     0.00000    1.000000
     26 C     c    0.674933    0.122068    0.264421     0.00000    1.000000
     27 C     c    0.992893    0.298840    0.466690     0.00000    1.000000
     28 C     c    0.483708    0.222590    0.822881     0.00000    1.000000
     29 C     c    0.587600    0.461228    0.761017     0.00000    1.000000
     30 C     c    0.019522    0.042480    0.426159     0.00000    1.000000
     31 C     c    0.117283    0.459163    0.535565     0.00000    1.000000
     32 C     c    0.354460    0.931216    0.397681     0.00000    1.000000
     33 C     c    0.738530    0.157993    0.325047     0.00000    1.000000
     34 C     c    0.017611    0.404982    0.757303     0.00000    1.000000
     35 C     c    0.080711    0.002857    0.150843     0.00000    1.000000
     36 C     c    0.288607    0.844081    0.684681     0.00000    1.000000
     37 C     c    0.574010    0.304236    0.203659     0.00000    1.000000
     38 C     c    0.925930    0.689110    0.627193     0.00000    1.000000
     39 C     c    0.255429    0.082744    0.869030     0.00000    1.000000
     40 C     c    0.107221    0.927030    0.817390     0.00000    1.000000
     41 C     c    0.178929    0.457853    0.907241     0.00000    1.000000
     42 C     c    0.718147    0.053781    0.439789     0.00000    1.000000
     43 C     c    0.289971    0.185828    0.409610     0.00000    1.000000
     44 C     c    0.407869    0.216063    0.298630     0.00000    1.000000
     45 C     c    0.893208    0.140529    0.587358     0.00000    1.000000
     46 C     c    0.784931    0.341383    0.131811     0.00000    1.000000
     47 C     c    0.203279    0.688150    0.866594     0.00000    1.000000
     48 C     c    0.479526    0.091555    0.901212     0.00000    1.000000
     49 C     c    0.340811    0.809782    0.890651     0.00000    1.000000
     50 C     c    0.153899    0.907546    0.453912     0.00000    1.000000
     51 C     c    0.849893    0.699940    0.201242     0.00000    1.000000
     52 C     c    0.835201    0.265631    0.405537     0.00000    1.000000
     53 C     c    0.214810    0.017358    0.132899     0.00000    1.000000
     54 C     c    0.474592    0.315423    0.071036     0.00000    1.000000
     55 C     c    0.746009    0.975482    0.478561     0.00000    1.000000
     56 C     c    0.152233    0.749396    0.473062     0.00000    1.000000
     57 C     c    0.512743    0.958760    0.672024     0.00000    1.000000
     58 C     c    0.431609    0.120250    0.321162     0.00000    1.000000
     59 C     c    0.025662    0.403838    0.327549     0.00000    1.000000
     60 C     c    0.954001    0.808220    0.425287     0.00000    1.000000
[...]
    498 C     c    0.311461    0.223339    0.321219     0.00000    1.000000
    499 C     c    0.574997    0.092358    0.103632     0.00000    1.000000
    500 C     c    0.995028    0.560560    0.536876     0.00000    1.000000
    501 C     c    0.825999    0.566323    0.463630     0.00000    1.000000
    502 C     c    0.042300    0.061759    0.841531     0.00000    1.000000
    503 C     c    0.932390    0.064709    0.447804     0.00000    1.000000
    504 C     c    0.504602    0.183446    0.488978     0.00000    1.000000
    505 C     c    0.932010    0.068402    0.541548     0.00000    1.000000
    506 C     c    0.658071    0.350529    0.891462     0.00000    1.000000
    507 C     c    0.187240    0.279693    0.929893     0.00000    1.000000
    508 C     c    0.546081    0.157430    0.034350     0.00000    1.000000
    509 C     c    0.295151    0.276182    0.685517     0.00000    1.000000
    510 C     c    0.222232    0.061292    0.034839     0.00000    1.000000
    511 C     c    0.661417    0.094708    0.692528     0.00000    1.000000
    512 C     c    0.613350    0.859610    0.403690     0.00000    1.000000

  Brillouin zone sampling points :

  Point number          x          y          z            Weight
        1           0.500000   0.000000   0.500000     0.00581395
        2           0.473684   0.000000   0.500000     0.00581395
        3           0.447368   0.000000   0.500000     0.00581395
        4           0.421053   0.000000   0.500000     0.00581395
        5           0.394737   0.000000   0.500000     0.00581395
        6           0.368421   0.000000   0.500000     0.00581395
        7           0.342105   0.000000   0.500000     0.00581395
        8           0.315789   0.000000   0.500000     0.00581395
        9           0.289474   0.000000   0.500000     0.00581395
       10           0.263158   0.000000   0.500000     0.00581395
       11           0.236842   0.000000   0.500000     0.00581395
       12           0.210526   0.000000   0.500000     0.00581395
       13           0.184211   0.000000   0.500000     0.00581395
       14           0.157895   0.000000   0.500000     0.00581395
       15           0.131579   0.000000   0.500000     0.00581395
       16           0.105263   0.000000   0.500000     0.00581395
       17           0.078947   0.000000   0.500000     0.00581395
       18           0.052632   0.000000   0.500000     0.00581395
       19           0.026316   0.000000   0.500000     0.00581395
       20           0.000000   0.000000   0.500000     0.00581395
       21           0.000000   0.000000   0.500000     0.00581395
       22           0.000000   0.000000   0.473684     0.00581395
       23           0.000000   0.000000   0.447368     0.00581395
       24           0.000000   0.000000   0.421053     0.00581395
       25           0.000000   0.000000   0.394737     0.00581395
       26           0.000000   0.000000   0.368421     0.00581395
       27           0.000000   0.000000   0.342105     0.00581395
       28           0.000000   0.000000   0.315789     0.00581395
       29           0.000000   0.000000   0.289474     0.00581395
       30           0.000000   0.000000   0.263158     0.00581395
       31           0.000000   0.000000   0.236842     0.00581395
       32           0.000000   0.000000   0.210526     0.00581395
       33           0.000000   0.000000   0.184211     0.00581395
       34           0.000000   0.000000   0.157895     0.00581395
       35           0.000000   0.000000   0.131579     0.00581395
       36           0.000000   0.000000   0.105263     0.00581395
       37           0.000000   0.000000   0.078947     0.00581395
       38           0.000000   0.000000   0.052632     0.00581395
       39           0.000000   0.000000   0.026316     0.00581395
       40           0.000000   0.000000   0.000000     0.00581395
       41           0.000000   0.000000   0.000000     0.00581395
       42           0.026316   0.000000   0.000000     0.00581395
       43           0.052632   0.000000   0.000000     0.00581395
       44           0.078947   0.000000   0.000000     0.00581395
       45           0.105263   0.000000   0.000000     0.00581395
       46           0.131579   0.000000   0.000000     0.00581395
       47           0.157895   0.000000   0.000000     0.00581395
       48           0.184211   0.000000   0.000000     0.00581395
       49           0.210526   0.000000   0.000000     0.00581395
       50           0.236842   0.000000   0.000000     0.00581395
       51           0.263158   0.000000   0.000000     0.00581395
       52           0.289474   0.000000   0.000000     0.00581395
       53           0.315789   0.000000   0.000000     0.00581395
       54           0.342105   0.000000   0.000000     0.00581395
       55           0.368421   0.000000   0.000000     0.00581395
       56           0.394737   0.000000   0.000000     0.00581395
       57           0.421053   0.000000   0.000000     0.00581395
       58           0.447368   0.000000   0.000000     0.00581395
       59           0.473684   0.000000   0.000000     0.00581395
       60           0.500000   0.000000   0.000000     0.00581395
[...]
      158           0.375000   0.125000   0.375000     0.00581395
      159           0.375000   0.125000   0.625000     0.00581395
      160           0.375000   0.125000   0.875000     0.00581395
      161           0.375000   0.375000   0.125000     0.00581395
      162           0.375000   0.375000   0.375000     0.00581395
[...]
 3824.00000 |                                                              0.000
 3826.00000 |                                                              0.000
 3828.00000 |                                                              0.000
 3830.00000 |                                                              0.000
 3832.00000 |                                                              0.000
 3834.00000 |                                                              0.000
 3836.00000 |                                                              0.000
 3838.00000 |                                                              0.000
 3840.00000 |                                                              0.000
 3842.00000 |                                                              0.000
 3844.00000 |                                                              0.000
 3846.00000 |                                                              0.000
 3848.00000 |                                                              0.000
 3850.00000 |                                                              0.000
 3852.00000 |                                                              0.000
 3854.00000 |                                                              0.000
 3856.00000 |                                                              0.000
 3858.00000 |                                                              0.000
 3860.00000 |                                                              0.000
 3862.00000 |                                                              0.000
 3864.00000 |                                                              0.000
 3866.00000 |                                                              0.000
[...]
 4208.00000 |                                                              0.000
 4210.00000 |                                                              0.000
 4212.00000 |                                                              0.000
 4214.00000 |                                                              0.000
 4216.00000 |                                                              0.000
 4218.00000 |                                                              0.000
 4220.00000 |                                                              0.000
 4222.00000 |                                                              0.000
 4224.00000 |                                                              0.000
 4226.00000 |                                                              0.000
 4228.00000 |                                                              0.000
 4230.00000 |                                                              0.000
 4232.00000 |                                                              0.000
 4234.00000 |                                                              0.000
 4236.00000 |                                                              0.000
 4238.00000 |******************                                            0.001

  Phonon density of states written as 70sp2_0047.dens

  Phonon dispersion curves :

  Section number =   1
  Frequency (cm-1) Phonon dispersion
  4079.88   |  *  *  *  *  *  *  *  *  *  *  *  *  *  *  *  *  *  *  *  *
  3909.89   |
  3739.89   |  *  *  *  *  *  *  *  *  *  *  *  *  *  *  *  *  *  *  *  *
  3569.90   |  *  *  *  *  *  *  *  *  *  *  *  *  *  *  *  *  *  *  *  *
  3399.90   |  *  *  *  *  *  *  *  *  *  *  *  *  *  *  *  *  *  *  *  *
  3229.91   |  *  *  *  *  *  *  *  *  *  *  *  *  *  *  *  *  *  *  *  *
  3059.91   |  *  *  *  *  *  *  *  *  *  *  *  *  *  *  *  *  *  *  *  *
  2889.92   |  *  *  *  *  *  *  *  *  *  *  *  *  *  *  *  *  *  *  *  *
  2719.92   |  *  *  *  *  *  *  *  *  *  *  *  *  *  *  *  *  *  *  *  *
  2549.93   |  *  *  *  *  *  *  *  *  *  *  *  *  *  *  *  *  *  *  *  *
  2379.93   |  *  *  *  *  *  *  *  *  *  *  *  *  *  *  *  *  *  *  *  *
  2209.94   |  *  *  *  *  *  *  *  *  *  *  *  *  *  *  *  *  *  *  *  *
  2039.94   |  *  *  *  *  *  *  *  *  *  *  *  *  *  *  *  *  *  *  *  *
  1869.95   |  *  *  *  *  *  *  *  *  *  *  *  *  *  *  *  *  *  *  *  *
  1699.95   |  *  *  *  *  *  *  *  *  *  *  *  *  *  *  *  *  *  *  *  *
  1529.96   |  *  *  *  *  *  *  *  *  *  *  *  *  *  *  *  *  *  *  *  *
  1359.96   |  *  *  *  *  *  *  *  *  *  *  *  *  *  *  *  *  *  *  *  *
  1189.97   |  *  *  *  *  *  *  *  *  *  *  *  *  *  *  *  *  *  *  *  *
  1019.97   |  *  *  *  *  *  *  *  *  *  *  *  *  *  *  *  *  *  *  *  *
   849.98   |  *  *  *  *  *  *  *  *  *  *  *  *  *  *  *  *  *  *  *  *
   679.98   |  *  *  *  *  *  *  *  *  *  *  *  *  *  *  *  *  *  *  *  *
   509.99   |  *  *  *  *  *  *  *  *  *  *  *  *  *  *  *  *  *  *  *  *
   339.99   |  *  *  *  *  *  *  *  *  *  *  *  *  *  *  *  *  *  *  *  *
   170.00   |  *  *  *  *  *  *  *  *  *  *  *  *  *  *  *  *  *  *  *  *
     0.00   |  *  *  *  *  *  *  *  *  *  *  *  *  *  *  *  *  *  *  *  *
  Section number =   2
  Frequency (cm-1) Phonon dispersion
  4079.88   |  *  *  *  *  *  *  *  *  *  *  *  *  *  *  *  *  *  *  *  *
  3909.89   |
  3739.89   |  *  *  *  *  *  *  *  *  *  *  *  *  *  *  *  *  *  *  *  *
  3569.90   |  *  *  *  *  *  *  *  *  *  *  *  *  *  *  *  *  *  *  *  *
  3399.90   |  *  *  *  *  *  *  *  *  *  *  *  *  *  *  *  *  *  *  *  *
  3229.91   |  *  *  *  *  *  *  *  *  *  *  *  *  *  *  *  *  *  *  *  *
  3059.91   |  *  *  *  *  *  *  *  *  *  *  *  *  *  *  *  *  *  *  *  *
  2889.92   |  *  *  *  *  *  *  *  *  *  *  *  *  *  *  *  *  *  *  *  *
  2719.92   |  *  *  *  *  *  *  *  *  *  *  *  *  *  *  *  *  *  *  *  *
  2549.93   |  *  *  *  *  *  *  *  *  *  *  *  *  *  *  *  *  *  *  *  *
  2379.93   |  *  *  *  *  *  *  *  *  *  *  *  *  *  *  *  *  *  *  *  *
  2209.94   |  *  *  *  *  *  *  *  *  *  *  *  *  *  *  *  *  *  *  *  *
  2039.94   |  *  *  *  *  *  *  *  *  *  *  *  *  *  *  *  *  *  *  *  *
  1869.95   |  *  *  *  *  *  *  *  *  *  *  *  *  *  *  *  *  *  *  *  *
  1699.95   |  *  *  *  *  *  *  *  *  *  *  *  *  *  *  *  *  *  *  *  *
  1529.96   |  *  *  *  *  *  *  *  *  *  *  *  *  *  *  *  *  *  *  *  *
  1359.96   |  *  *  *  *  *  *  *  *  *  *  *  *  *  *  *  *  *  *  *  *
  1189.97   |  *  *  *  *  *  *  *  *  *  *  *  *  *  *  *  *  *  *  *  *
  1019.97   |  *  *  *  *  *  *  *  *  *  *  *  *  *  *  *  *  *  *  *  *
   849.98   |  *  *  *  *  *  *  *  *  *  *  *  *  *  *  *  *  *  *  *  *
   679.98   |  *  *  *  *  *  *  *  *  *  *  *  *  *  *  *  *  *  *  *  *
   509.99   |  *  *  *  *  *  *  *  *  *  *  *  *  *  *  *  *  *  *  *  *
   339.99   |  *  *  *  *  *  *  *  *  *  *  *  *  *  *  *  *  *  *  *  *
   170.00   |  *  *  *  *  *  *  *  *  *  *  *  *  *  *  *  *  *  *  *  *
     0.00   |  *  *  *  *  *  *  *  *  *  *  *  *  *  *  *  *  *  *  *  *
  Section number =   3
  Frequency (cm-1) Phonon dispersion
  4079.88   |  *  *  *  *  *  *  *  *  *  *  *  *  *  *  *  *  *  *  *  *
  3909.89   |
  3739.89   |  *  *  *  *  *  *  *  *  *  *  *  *  *  *  *  *  *  *  *  *
  3569.90   |  *  *  *  *  *  *  *  *  *  *  *  *  *  *  *  *  *  *  *  *
  3399.90   |  *  *  *  *  *  *  *  *  *  *  *  *  *  *  *  *  *  *  *  *
  3229.91   |  *  *  *  *  *  *  *  *  *  *  *  *  *  *  *  *  *  *  *  *
  3059.91   |  *  *  *  *  *  *  *  *  *  *  *  *  *  *  *  *  *  *  *  *
  2889.92   |  *  *  *  *  *  *  *  *  *  *  *  *  *  *  *  *  *  *  *  *
  2719.92   |  *  *  *  *  *  *  *  *  *  *  *  *  *  *  *  *  *  *  *  *
  2549.93   |  *  *  *  *  *  *  *  *  *  *  *  *  *  *  *  *  *  *  *  *
  2379.93   |  *  *  *  *  *  *  *  *  *  *  *  *  *  *  *  *  *  *  *  *
  2209.94   |  *  *  *  *  *  *  *  *  *  *  *  *  *  *  *  *  *  *  *  *
  2039.94   |  *  *  *  *  *  *  *  *  *  *  *  *  *  *  *  *  *  *  *  *
  1869.95   |  *  *  *  *  *  *  *  *  *  *  *  *  *  *  *  *  *  *  *  *
  1699.95   |  *  *  *  *  *  *  *  *  *  *  *  *  *  *  *  *  *  *  *  *
  1529.96   |  *  *  *  *  *  *  *  *  *  *  *  *  *  *  *  *  *  *  *  *
  1359.96   |  *  *  *  *  *  *  *  *  *  *  *  *  *  *  *  *  *  *  *  *
  1189.97   |  *  *  *  *  *  *  *  *  *  *  *  *  *  *  *  *  *  *  *  *
  1019.97   |  *  *  *  *  *  *  *  *  *  *  *  *  *  *  *  *  *  *  *  *
   849.98   |  *  *  *  *  *  *  *  *  *  *  *  *  *  *  *  *  *  *  *  *
   679.98   |  *  *  *  *  *  *  *  *  *  *  *  *  *  *  *  *  *  *  *  *
   509.99   |  *  *  *  *  *  *  *  *  *  *  *  *  *  *  *  *  *  *  *  *
   339.99   |  *  *  *  *  *  *  *  *  *  *  *  *  *  *  *  *  *  *  *  *
   170.00   |  *  *  *  *  *  *  *  *  *  *  *  *  *  *  *  *  *  *  *  *
     0.00   |  *  *  *  *  *  *  *  *  *  *  *  *  *  *  *  *  *  *  *  *
  Section number =   4
  Frequency (cm-1) Phonon dispersion
  4079.88   |  *  *  *  *  *  *  *  *  *  *  *  *  *  *  *  *  *  *  *  *
  3909.89   |
  3739.89   |  *  *  *  *  *  *  *  *  *  *  *  *  *  *  *  *  *  *  *  *
  3569.90   |  *  *  *  *  *  *  *  *  *  *  *  *  *  *  *  *  *  *  *  *
  3399.90   |  *  *  *  *  *  *  *  *  *  *  *  *  *  *  *  *  *  *  *  *
  3229.91   |  *  *  *  *  *  *  *  *  *  *  *  *  *  *  *  *  *  *  *  *
  3059.91   |  *  *  *  *  *  *  *  *  *  *  *  *  *  *  *  *  *  *  *  *
  2889.92   |  *  *  *  *  *  *  *  *  *  *  *  *  *  *  *  *  *  *  *  *
  2719.92   |  *  *  *  *  *  *  *  *  *  *  *  *  *  *  *  *  *  *  *  *
  2549.93   |  *  *  *  *  *  *  *  *  *  *  *  *  *  *  *  *  *  *  *  *
  2379.93   |  *  *  *  *  *  *  *  *  *  *  *  *  *  *  *  *  *  *  *  *
  2209.94   |  *  *  *  *  *  *  *  *  *  *  *  *  *  *  *  *  *  *  *  *
  2039.94   |  *  *  *  *  *  *  *  *  *  *  *  *  *  *  *  *  *  *  *  *
  1869.95   |  *  *  *  *  *  *  *  *  *  *  *  *  *  *  *  *  *  *  *  *
  1699.95   |  *  *  *  *  *  *  *  *  *  *  *  *  *  *  *  *  *  *  *  *
  1529.96   |  *  *  *  *  *  *  *  *  *  *  *  *  *  *  *  *  *  *  *  *
  1359.96   |  *  *  *  *  *  *  *  *  *  *  *  *  *  *  *  *  *  *  *  *
  1189.97   |  *  *  *  *  *  *  *  *  *  *  *  *  *  *  *  *  *  *  *  *
  1019.97   |  *  *  *  *  *  *  *  *  *  *  *  *  *  *  *  *  *  *  *  *
   849.98   |  *  *  *  *  *  *  *  *  *  *  *  *  *  *  *  *  *  *  *  *
   679.98   |  *  *  *  *  *  *  *  *  *  *  *  *  *  *  *  *  *  *  *  *
   509.99   |  *  *  *  *  *  *  *  *  *  *  *  *  *  *  *  *  *  *  *  *
   339.99   |  *  *  *  *  *  *  *  *  *  *  *  *  *  *  *  *  *  *  *  *
   170.00   |  *  *  *  *  *  *  *  *  *  *  *  *  *  *  *  *  *  *  *  *
     0.00   |  *  *  *  *  *  *  *  *  *  *  *  *  *  *  *  *  *  *  *  *
  Section number =   5
  Frequency (cm-1) Phonon dispersion
  4079.88   |  *  *  *  *  *  *  *  *  *  *  *  *  *  *  *  *  *  *  *  *
  3909.89   |
  3739.89   |  *  *  *  *  *  *  *  *  *  *  *  *  *  *  *  *  *  *  *  *
  3569.90   |  *  *  *  *  *  *  *  *  *  *  *  *  *  *  *  *  *  *  *  *
  3399.90   |  *  *  *  *  *  *  *  *  *  *  *  *  *  *  *  *  *  *  *  *
  3229.91   |  *  *  *  *  *  *  *  *  *  *  *  *  *  *  *  *  *  *  *  *
  3059.91   |  *  *  *  *  *  *  *  *  *  *  *  *  *  *  *  *  *  *  *  *
  2889.92   |  *  *  *  *  *  *  *  *  *  *  *  *  *  *  *  *  *  *  *  *
  2719.92   |  *  *  *  *  *  *  *  *  *  *  *  *  *  *  *  *  *  *  *  *
  2549.93   |  *  *  *  *  *  *  *  *  *  *  *  *  *  *  *  *  *  *  *  *
  2379.93   |  *  *  *  *  *  *  *  *  *  *  *  *  *  *  *  *  *  *  *  *
  2209.94   |  *  *  *  *  *  *  *  *  *  *  *  *  *  *  *  *  *  *  *  *
  2039.94   |  *  *  *  *  *  *  *  *  *  *  *  *  *  *  *  *  *  *  *  *
  1869.95   |  *  *  *  *  *  *  *  *  *  *  *  *  *  *  *  *  *  *  *  *
  1699.95   |  *  *  *  *  *  *  *  *  *  *  *  *  *  *  *  *  *  *  *  *
  1529.96   |  *  *  *  *  *  *  *  *  *  *  *  *  *  *  *  *  *  *  *  *
  1359.96   |  *  *  *  *  *  *  *  *  *  *  *  *  *  *  *  *  *  *  *  *
  1189.97   |  *  *  *  *  *  *  *  *  *  *  *  *  *  *  *  *  *  *  *  *
  1019.97   |  *  *  *  *  *  *  *  *  *  *  *  *  *  *  *  *  *  *  *  *
   849.98   |  *  *  *  *  *  *  *  *  *  *  *  *  *  *  *  *  *  *  *  *
   679.98   |  *  *  *  *  *  *  *  *  *  *  *  *  *  *  *  *  *  *  *  *
   509.99   |  *  *  *  *  *  *  *  *  *  *  *  *  *  *  *  *  *  *  *  *
   339.99   |  *  *  *  *  *  *  *  *  *  *  *  *  *  *  *  *  *  *  *  *
   170.00   |  *  *  *  *  *  *  *  *  *  *  *  *  *  *  *  *  *  *  *  *
     0.00   |  *  *  *  *  *  *  *  *  *  *  *  *  *  *  *  *  *  *  *  *
  Section number =   6
  Frequency (cm-1) Phonon dispersion
  4079.88   |  *  *  *  *  *  *  *  *  *  *  *  *  *  *  *  *  *  *  *  *
  3909.89   |
  3739.89   |  *  *  *  *  *  *  *  *  *  *  *  *  *  *  *  *  *  *  *  *
  3569.90   |  *  *  *  *  *  *  *  *  *  *  *  *  *  *  *  *  *  *  *  *
  3399.90   |  *  *  *  *  *  *  *  *  *  *  *  *  *  *  *  *  *  *  *  *
  3229.91   |  *  *  *  *  *  *  *  *  *  *  *  *  *  *  *  *  *  *  *  *
  3059.91   |  *  *  *  *  *  *  *  *  *  *  *  *  *  *  *  *  *  *  *  *
  2889.92   |  *  *  *  *  *  *  *  *  *  *  *  *  *  *  *  *  *  *  *  *
  2719.92   |  *  *  *  *  *  *  *  *  *  *  *  *  *  *  *  *  *  *  *  *
  2549.93   |  *  *  *  *  *  *  *  *  *  *  *  *  *  *  *  *  *  *  *  *
  2379.93   |  *  *  *  *  *  *  *  *  *  *  *  *  *  *  *  *  *  *  *  *
  2209.94   |  *  *  *  *  *  *  *  *  *  *  *  *  *  *  *  *  *  *  *  *
  2039.94   |  *  *  *  *  *  *  *  *  *  *  *  *  *  *  *  *  *  *  *  *
  1869.95   |  *  *  *  *  *  *  *  *  *  *  *  *  *  *  *  *  *  *  *  *
  1699.95   |  *  *  *  *  *  *  *  *  *  *  *  *  *  *  *  *  *  *  *  *
  1529.96   |  *  *  *  *  *  *  *  *  *  *  *  *  *  *  *  *  *  *  *  *
  1359.96   |  *  *  *  *  *  *  *  *  *  *  *  *  *  *  *  *  *  *  *  *
  1189.97   |  *  *  *  *  *  *  *  *  *  *  *  *  *  *  *  *  *  *  *  *
  1019.97   |  *  *  *  *  *  *  *  *  *  *  *  *  *  *  *  *  *  *  *  *
   849.98   |  *  *  *  *  *  *  *  *  *  *  *  *  *  *  *  *  *  *  *  *
   679.98   |  *  *  *  *  *  *  *  *  *  *  *  *  *  *  *  *  *  *  *  *
   509.99   |  *  *  *  *  *  *  *  *  *  *  *  *  *  *  *  *  *  *  *  *
   339.99   |  *  *  *  *  *  *  *  *  *  *  *  *  *  *  *  *  *  *  *  *
   170.00   |  *  *  *  *  *  *  *  *  *  *  *  *  *  *  *  *  *  *  *  *
     0.00   |  *  *  *  *  *  *  *  *  *  *  *  *  *  *  *  *  *  *  *  *
  Section number =   7
  Frequency (cm-1) Phonon dispersion
  4079.88   |  *  *  *  *  *  *  *  *  *  *  *  *  *  *  *  *  *  *  *  *
  3909.89   |
  3739.89   |  *  *  *  *  *  *  *  *  *  *  *  *  *  *  *  *  *  *  *  *
  3569.90   |  *  *  *  *  *  *  *  *  *  *  *  *  *  *  *  *  *  *  *  *
  3399.90   |  *  *  *  *  *  *  *  *  *  *  *  *  *  *  *  *  *  *  *  *
  3229.91   |  *  *  *  *  *  *  *  *  *  *  *  *  *  *  *  *  *  *  *  *
  3059.91   |  *  *  *  *  *  *  *  *  *  *  *  *  *  *  *  *  *  *  *  *
  2889.92   |  *  *  *  *  *  *  *  *  *  *  *  *  *  *  *  *  *  *  *  *
  2719.92   |  *  *  *  *  *  *  *  *  *  *  *  *  *  *  *  *  *  *  *  *
  2549.93   |  *  *  *  *  *  *  *  *  *  *  *  *  *  *  *  *  *  *  *  *
  2379.93   |  *  *  *  *  *  *  *  *  *  *  *  *  *  *  *  *  *  *  *  *
  2209.94   |  *  *  *  *  *  *  *  *  *  *  *  *  *  *  *  *  *  *  *  *
  2039.94   |  *  *  *  *  *  *  *  *  *  *  *  *  *  *  *  *  *  *  *  *
  1869.95   |  *  *  *  *  *  *  *  *  *  *  *  *  *  *  *  *  *  *  *  *
  1699.95   |  *  *  *  *  *  *  *  *  *  *  *  *  *  *  *  *  *  *  *  *
  1529.96   |  *  *  *  *  *  *  *  *  *  *  *  *  *  *  *  *  *  *  *  *
  1359.96   |  *  *  *  *  *  *  *  *  *  *  *  *  *  *  *  *  *  *  *  *
  1189.97   |  *  *  *  *  *  *  *  *  *  *  *  *  *  *  *  *  *  *  *  *
  1019.97   |  *  *  *  *  *  *  *  *  *  *  *  *  *  *  *  *  *  *  *  *
   849.98   |  *  *  *  *  *  *  *  *  *  *  *  *  *  *  *  *  *  *  *  *
   679.98   |  *  *  *  *  *  *  *  *  *  *  *  *  *  *  *  *  *  *  *  *
   509.99   |  *  *  *  *  *  *  *  *  *  *  *  *  *  *  *  *  *  *  *  *
   339.99   |  *  *  *  *  *  *  *  *  *  *  *  *  *  *  *  *  *  *  *  *
   170.00   |  *  *  *  *  *  *  *  *  *  *  *  *  *  *  *  *  *  *  *  *
     0.00   |  *  *  *  *  *  *  *  *  *  *  *  *  *  *  *  *  *  *  *  *

  Phonon dispersion written as 70sp2_0047.disp

  Time to end of properties =   13866.2361 seconds

  Timing analysis for GULP :

  Task / Subroutine                                          Time (Seconds)
  Calculation of real space energy and derivatives                0.0922
  Calculation of Brenner energy and derivatives                 717.3901
  Calculation of phonons                                      13742.3309
  Disk read/write operations to scratch files                     0.0001
  Global summation overhead                                     210.3308

  Job Finished at 14:07.30 22nd April      2021