  Job Started  at 13:01.01 31st July       2020

  Number of CPUs =     1

  Total number of configurations input =      1

*  Input for Configuration =   1                                               *

  Formula = C64

  Number of irreducible atoms/shells =      64

  Total number atoms/shells =      64

  Dimensionality = 3               :  Bulk

  Cartesian lattice vectors (Angstroms) :

        7.593060    0.000000    0.000000
        0.000000    7.593060    0.000000
        0.000000    0.000000    7.593060

  Cell parameters (Angstroms/Degrees):

  a =       7.5931    alpha =  90.0000
  b =       7.5931    beta  =  90.0000
  c =       7.5931    gamma =  90.0000

  Initial cell volume =         437.774535 Angs**3

  Temperature of configuration =   0.00     K

  Pressure of configuration =         0.000 GPa

  Fractional coordinates of asymmetric unit :

   No.  Atomic       x           y          z         Charge      Occupancy
        Label      (Frac)      (Frac)     (Frac)        (e)         (Frac)
      1 C     c    0.476040    0.519880    0.065020     0.00000    1.000000
      2 C     c    0.408230 *  0.739570 *  0.304320 *   0.00000    1.000000
      3 C     c    0.283500 *  0.257800 *  0.903540 *   0.00000    1.000000
      4 C     c    0.121740 *  0.015000 *  0.619820 *   0.00000    1.000000
      5 C     c    0.961630 *  0.858120 *  0.881770 *   0.00000    1.000000
      6 C     c    0.791230 *  0.484810 *  0.577650 *   0.00000    1.000000
      7 C     c    0.611650 *  0.418220 *  0.674250 *   0.00000    1.000000
      8 C     c    0.791740 *  0.717880 *  0.328190 *   0.00000    1.000000
      9 C     c    0.885060 *  0.252990 *  0.323860 *   0.00000    1.000000
     10 C     c    0.677960 *  0.164610 *  0.130500 *   0.00000    1.000000
     11 C     c    0.876740 *  0.039070 *  0.362680 *   0.00000    1.000000
     12 C     c    0.961970 *  0.955970 *  0.523330 *   0.00000    1.000000
     13 C     c    0.510700 *  0.062220 *  0.141510 *   0.00000    1.000000
     14 C     c    0.554090 *  0.985780 *  0.487090 *   0.00000    1.000000
     15 C     c    0.461770 *  0.326030 *  0.993000 *   0.00000    1.000000
     16 C     c    0.946890 *  0.357160 *  0.482980 *   0.00000    1.000000
     17 C     c    0.154070 *  0.421170 *  0.828520 *   0.00000    1.000000
     18 C     c    0.831770 *  0.738730 *  0.814560 *   0.00000    1.000000
     19 C     c    0.920120 *  0.954310 *  0.037080 *   0.00000    1.000000
     20 C     c    0.147610 *  0.916410 *  0.794660 *   0.00000    1.000000
     21 C     c    0.868360 *  0.656000 *  0.654380 *   0.00000    1.000000
     22 C     c    0.879940 *  0.132590 *  0.720880 *   0.00000    1.000000
     23 C     c    0.499460 *  0.600100 *  0.409770 *   0.00000    1.000000
     24 C     c    0.653150 *  0.710260 *  0.882190 *   0.00000    1.000000
     25 C     c    0.638740 *  0.591320 *  0.028020 *   0.00000    1.000000
     26 C     c    0.781760 *  0.980410 *  0.706670 *   0.00000    1.000000
     27 C     c    0.472510 *  0.453970 *  0.572730 *   0.00000    1.000000
     28 C     c    0.358710 *  0.639340 *  0.140240 *   0.00000    1.000000
     29 C     c    0.589570 *  0.956860 *  0.680290 *   0.00000    1.000000
     30 C     c    0.718040 *  0.337390 *  0.232610 *   0.00000    1.000000
     31 C     c    0.001140 *  0.187050 *  0.148080 *   0.00000    1.000000
     32 C     c    0.965430 *  0.404090 *  0.890210 *   0.00000    1.000000
     33 C     c    0.506120 *  0.789580 *  0.785060 *   0.00000    1.000000
     34 C     c    0.837780 *  0.141480 *  0.024540 *   0.00000    1.000000
     35 C     c    0.349610 *  0.176980 *  0.704320 *   0.00000    1.000000
     36 C     c    0.114160 *  0.481020 *  0.449370 *   0.00000    1.000000
     37 C     c    0.177470 *  0.156740 *  0.076340 *   0.00000    1.000000
     38 C     c    0.281670 *  0.397800 *  0.512320 *   0.00000    1.000000
     39 C     c    0.098910 *  0.680840 *  0.419430 *   0.00000    1.000000
     40 C     c    0.930150 *  0.506570 *  0.035090 *   0.00000    1.000000
     41 C     c    0.825710 *  0.254140 *  0.863560 *   0.00000    1.000000
     42 C     c    0.362940 *  0.214000 *  0.165770 *   0.00000    1.000000
     43 C     c    0.399470 *  0.120970 *  0.502590 *   0.00000    1.000000
     44 C     c    0.983380 *  0.715560 *  0.265900 *   0.00000    1.000000
     45 C     c    0.394910 *  0.281560 *  0.358750 *   0.00000    1.000000
     46 C     c    0.560620 *  0.397310 *  0.336180 *   0.00000    1.000000
     47 C     c    0.315270 *  0.767480 *  0.789300 *   0.00000    1.000000
     48 C     c    0.937820 *  0.909940 *  0.211780 *   0.00000    1.000000
     49 C     c    0.766280 *  0.492620 *  0.107940 *   0.00000    1.000000
     50 C     c    0.254780 *  0.806800 *  0.411390 *   0.00000    1.000000
     51 C     c    0.703920 *  0.556230 *  0.406270 *   0.00000    1.000000
     52 C     c    0.957750 *  0.762410 *  0.534000 *   0.00000    1.000000
     53 C     c    0.232480 *  0.605790 *  0.869400 *   0.00000    1.000000
     54 C     c    0.043270 *  0.616500 *  0.115680 *   0.00000    1.000000
     55 C     c    0.619960 *  0.289910 *  0.840110 *   0.00000    1.000000
     56 C     c    0.437720 *  0.008810 *  0.964830 *   0.00000    1.000000
     57 C     c    0.520090 *  0.915040 *  0.281560 *   0.00000    1.000000
     58 C     c    0.206950 *  0.638760 *  0.050740 *   0.00000    1.000000
     59 C     c    0.024090 *  0.212260 *  0.608440 *   0.00000    1.000000
     60 C     c    0.263200 *  0.965980 *  0.492200 *   0.00000    1.000000
     61 C     c    0.714850 *  0.905160 *  0.357290 *   0.00000    1.000000
     62 C     c    0.247900 *  0.994030 *  0.956370 *   0.00000    1.000000
     63 C     c    0.509550 *  0.102510 *  0.802490 *   0.00000    1.000000
     64 C     c    0.189960 *  0.302950 *  0.668360 *   0.00000    1.000000

  Constraints :

  Constraint no.      Unconstrained     Constrained    Coefficient    Offset
                         Variable         Variable
           1              Strain 1        Strain 2       1.00000      0.0000
           2              Strain 1        Strain 3       1.00000      0.0000

*  General input information                                                   *

  Species output for all configurations :

  Species    Type    Atomic    Atomic    Charge       Radii (Angs)     Library
                     Number     Mass       (e)     Cova   Ionic  VDW   Symbol
    C        Core        6      12.01   0.000000   0.770  0.000  1.530

  Lattice summation method               =    Ewald          (3-D)
                                         =    Parry          (2-D)
                                         =    Saunders et al (1-D)
  Accuracy factor for lattice sums       =   12.000

  Analytic derivatives to be used

  Time limit = Infinity

  Maximum range for interatomic potentials =    100000.000000 Angstroms

  Brenner et al 2002 potential to be used with explicit splines for P

*  Output for configuration   1                                                *

  Components of energy :

  Interatomic potentials     =           0.00000000 eV
  Brenner potentials         =        -420.70174398 eV
  Monopole - monopole (real) =           0.00000000 eV
  Monopole - monopole (recip)=           0.00000000 eV
  Monopole - monopole (total)=           0.00000000 eV
  Total lattice energy       =        -420.70174398 eV
  Total lattice energy       =          -40591.2873 kJ/(mole unit cells)

  Number of variables =      189

  Maximum number of calculations  =          2000
  Maximum Hessian update interval =            10
  Maximum step size               =   1.000000000
  Maximum parameter tolerance     =   0.000010000
  Maximum function  tolerance     =   0.000010000
  Maximum gradient  tolerance     =   0.001000000
  Maximum gradient  component     =   0.010000000

  Maximum LM gradient tolerance   =   0.900000000
  Symmetry not applied to optimisation

  BFGS hessian update to be used

  Lower half triangular hessian to be used

  Start of bulk optimisation :

  **** Optimisation achieved ****

  Final energy =    -421.97982377 eV
  Final Gnorm  =       0.00021073

  Components of energy :

  Interatomic potentials     =           0.00000000 eV
  Brenner potentials         =        -421.97982377 eV
  Monopole - monopole (real) =           0.00000000 eV
  Monopole - monopole (recip)=           0.00000000 eV
  Monopole - monopole (total)=           0.00000000 eV
  Total lattice energy       =        -421.97982377 eV
  Total lattice energy       =          -40714.6024 kJ/(mole unit cells)

  Final fractional coordinates of atoms :

   No.  Atomic        x           y          z          Radius
        Label       (Frac)      (Frac)     (Frac)       (Angs)
     1  C     c     0.476040    0.519880    0.065020    0.000000
     2  C     c     0.411088    0.739128    0.305515    0.000000
     3  C     c     0.290582    0.259718    0.911113    0.000000
     4  C     c     0.105174    0.009126    0.614126    0.000000
     5  C     c     0.961213    0.853063    0.880862    0.000000
     6  C     c     0.796564    0.475321    0.580185    0.000000
     7  C     c     0.614850    0.415768    0.678910    0.000000
     8  C     c     0.790519    0.713468    0.331154    0.000000
     9  C     c     0.884072    0.246555    0.325782    0.000000
    10  C     c     0.686091    0.160456    0.139750    0.000000
    11  C     c     0.872088    0.039175    0.358236    0.000000
    12  C     c     0.951442    0.932079    0.517747    0.000000
    13  C     c     0.515811    0.057940    0.148297    0.000000
    14  C     c     0.552707    0.979843    0.494844    0.000000
    15  C     c     0.469574    0.328763    0.001072    0.000000
    16  C     c     0.950612    0.350417    0.486312    0.000000
    17  C     c     0.160540    0.418021    0.829758    0.000000
    18  C     c     0.833895    0.731170    0.814571    0.000000
    19  C     c     0.915718    0.948093    0.035328    0.000000
    20  C     c     0.145153    0.914304    0.792898    0.000000
    21  C     c     0.873298    0.645534    0.655421    0.000000
    22  C     c     0.891379    0.123185    0.725807    0.000000
    23  C     c     0.501768    0.601396    0.412889    0.000000
    24  C     c     0.653258    0.703127    0.881887    0.000000
    25  C     c     0.641299    0.587236    0.027647    0.000000
    26  C     c     0.791353    0.972817    0.719229    0.000000
    27  C     c     0.470593    0.465436    0.576357    0.000000
    28  C     c     0.359612    0.641508    0.137992    0.000000
    29  C     c     0.592445    0.951457    0.689429    0.000000
    30  C     c     0.715753    0.339673    0.233980    0.000000
    31  C     c     0.007793    0.192814    0.155264    0.000000
    32  C     c     0.970838    0.395170    0.892605    0.000000
    33  C     c     0.506644    0.785477    0.781752    0.000000
    34  C     c     0.847674    0.135633    0.031554    0.000000
    35  C     c     0.354850    0.174705    0.710580    0.000000
    36  C     c     0.114944    0.477256    0.445252    0.000000
    37  C     c     0.182893    0.160867    0.081402    0.000000
    38  C     c     0.282175    0.398603    0.516327    0.000000
    39  C     c     0.103805    0.672513    0.418882    0.000000
    40  C     c     0.934256    0.498168    0.036854    0.000000
    41  C     c     0.834283    0.245502    0.869127    0.000000
    42  C     c     0.372352    0.212335    0.168092    0.000000
    43  C     c     0.395764    0.116499    0.506279    0.000000
    44  C     c     0.982299    0.712495    0.264728    0.000000
    45  C     c     0.394727    0.276568    0.365784    0.000000
    46  C     c     0.555654    0.398777    0.337936    0.000000
    47  C     c     0.310668    0.762572    0.779355    0.000000
    48  C     c     0.932349    0.900507    0.211710    0.000000
    49  C     c     0.768406    0.485529    0.108474    0.000000
    50  C     c     0.255478    0.804172    0.413061    0.000000
    51  C     c     0.708130    0.550950    0.405574    0.000000
    52  C     c     0.957057    0.748015    0.531717    0.000000
    53  C     c     0.232338    0.604467    0.860019    0.000000
    54  C     c     0.042611    0.618423    0.110551    0.000000
    55  C     c     0.626283    0.286083    0.844659    0.000000
    56  C     c     0.439781    0.009988    0.967636    0.000000
    57  C     c     0.520987    0.912251    0.285014    0.000000
    58  C     c     0.206052    0.646493    0.042310    0.000000
    59  C     c     0.036509    0.209827    0.611532    0.000000
    60  C     c     0.257912    0.962372    0.491510    0.000000
    61  C     c     0.716213    0.894844    0.367437    0.000000
    62  C     c     0.243648    0.004284    0.953199    0.000000
    63  C     c     0.518007    0.099253    0.807564    0.000000
    64  C     c     0.200729    0.302708    0.668817    0.000000

  Final internal derivatives :

   No.  Atomic          a             b             c           Radius
        Label          (eV)          (eV)          (eV)        (eV/Angs)
      1 C     c       0.000000      0.000000      0.000000      0.000000
      2 C     c      -0.003107     -0.006115     -0.000753      0.000000
      3 C     c       0.005573      0.003786      0.005494      0.000000
      4 C     c       0.002542     -0.000843      0.000806      0.000000
      5 C     c      -0.002008      0.000644     -0.002674      0.000000
      6 C     c       0.003044     -0.001250      0.003054      0.000000
      7 C     c      -0.003028      0.001677     -0.004378      0.000000
      8 C     c       0.005105      0.001215      0.003357      0.000000
      9 C     c       0.003075     -0.000519     -0.001117      0.000000
     10 C     c      -0.000447     -0.008689     -0.000286      0.000000
     11 C     c       0.001054      0.004212     -0.002446      0.000000
     12 C     c       0.001672      0.000343     -0.003246      0.000000
     13 C     c      -0.003032     -0.001551      0.001571      0.000000
     14 C     c      -0.001555     -0.002443      0.001772      0.000000
     15 C     c      -0.001450     -0.002288      0.001630      0.000000
     16 C     c      -0.000660     -0.001234     -0.000682      0.000000
     17 C     c      -0.003409      0.000047     -0.002631      0.000000
     18 C     c      -0.002684      0.000796      0.000613      0.000000
     19 C     c       0.000326     -0.000152     -0.001490      0.000000
     20 C     c      -0.000377      0.001501      0.001612      0.000000
     21 C     c      -0.002394      0.002553     -0.001107      0.000000
     22 C     c      -0.003220     -0.001591     -0.004100      0.000000
     23 C     c       0.002625      0.000341      0.001203      0.000000
     24 C     c      -0.003661     -0.004962     -0.000988      0.000000
     25 C     c      -0.000457     -0.001304      0.000519      0.000000
     26 C     c       0.001010     -0.006004     -0.002626      0.000000
     27 C     c      -0.001448     -0.004367      0.000847      0.000000
     28 C     c       0.001073      0.002327     -0.005806      0.000000
     29 C     c      -0.000313     -0.000839      0.002427      0.000000
     30 C     c      -0.005694      0.000822     -0.001768      0.000000
     31 C     c      -0.004890      0.007167     -0.002231      0.000000
     32 C     c      -0.000131      0.005386     -0.002446      0.000000
     33 C     c       0.001986     -0.001588     -0.006447      0.000000
     34 C     c      -0.000100     -0.002019     -0.002515      0.000000
     35 C     c      -0.000224      0.002823     -0.004198      0.000000
     36 C     c       0.000505      0.000523     -0.003655      0.000000
     37 C     c      -0.003609      0.003033     -0.000837      0.000000
     38 C     c       0.001199     -0.000956     -0.000058      0.000000
     39 C     c      -0.001254      0.001714     -0.003553      0.000000
     40 C     c      -0.000075      0.000572     -0.000396      0.000000
     41 C     c       0.002338     -0.001883     -0.002403      0.000000
     42 C     c       0.000659     -0.001024      0.004063      0.000000
     43 C     c      -0.000098     -0.001116     -0.000041      0.000000
     44 C     c       0.000015     -0.003467     -0.002879      0.000000
     45 C     c      -0.001469     -0.002365     -0.002464      0.000000
     46 C     c       0.000790     -0.005410      0.001095      0.000000
     47 C     c      -0.000510      0.001639     -0.007073      0.000000
     48 C     c      -0.005270     -0.000280      0.001989      0.000000
     49 C     c       0.000424      0.001542      0.000340      0.000000
     50 C     c      -0.004311     -0.002927      0.003868      0.000000
     51 C     c      -0.001398      0.000660     -0.000152      0.000000
     52 C     c      -0.004497     -0.002006     -0.008345      0.000000
     53 C     c       0.000429      0.000209      0.002077      0.000000
     54 C     c       0.000796     -0.003947      0.000143      0.000000
     55 C     c       0.000501     -0.005204      0.003040      0.000000
     56 C     c      -0.003729     -0.001146     -0.000798      0.000000
     57 C     c       0.001427     -0.000257      0.002996      0.000000
     58 C     c      -0.001110      0.001329      0.000356      0.000000
     59 C     c      -0.004503     -0.000468      0.000915      0.000000
     60 C     c      -0.004880      0.002494     -0.003091      0.000000
     61 C     c      -0.004142     -0.006952     -0.001633      0.000000
     62 C     c       0.002532     -0.003155     -0.005109      0.000000
     63 C     c      -0.005662      0.004520      0.001349      0.000000
     64 C     c      -0.002215     -0.002288     -0.003146      0.000000
  Maximum abs         0.005694      0.008689      0.008345      0.000000

  Time to end of optimisation =       2.9217 seconds

  Timing analysis for GULP :

  Task / Subroutine                                          Time (Seconds)
  Calculation of Brenner energy and derivatives                   2.8323

  CIF file written as opti_0.9775.cif

  Job Finished at 13:01.04 31st July       2020